c dominating set of size <= 15 in R6+R6 (x_v = vertex v-1 chosen, v=1..50; vars > 50 are sequential-counter auxiliaries)
c expected: UNSAT
p cnf 575 1120
1 2 31 34 0
2 1 33 32 0
3 33 4 31 0
4 3 36 35 0
5 34 6 32 0
6 5 38 37 0
7 33 35 8 0
8 39 7 40 0
9 10 37 34 0
10 9 36 39 0
11 35 12 40 0
12 11 36 38 0
13 37 14 39 0
14 13 38 40 0
15 41 44 16 0
16 42 43 15 0
17 41 18 43 0
18 17 45 46 0
19 42 20 44 0
20 19 47 48 0
21 43 45 22 0
22 49 50 21 0
23 44 47 24 0
24 49 46 23 0
25 26 45 50 0
26 25 46 48 0
27 49 28 47 0
28 50 27 48 0
29 30 31 32 0
30 41 42 29 0
31 1 3 29 0
32 2 5 29 0
33 2 3 7 0
34 1 9 5 0
35 11 4 7 0
36 12 10 4 0
37 9 13 6 0
38 14 12 6 0
39 10 13 8 0
40 11 14 8 0
41 17 30 15 0
42 19 30 16 0
43 17 21 16 0
44 19 15 23 0
45 25 18 21 0
46 18 26 24 0
47 27 20 23 0
48 28 26 20 0
49 27 22 24 0
50 25 28 22 0
-1 51 0
-51 52 0
-2 -51 53 0
-53 54 0
-3 -53 55 0
-55 56 0
-4 -55 57 0
-57 58 0
-5 -57 59 0
-59 60 0
-6 -59 61 0
-61 62 0
-7 -61 63 0
-63 64 0
-8 -63 65 0
-65 66 0
-9 -65 67 0
-67 68 0
-10 -67 69 0
-69 70 0
-11 -69 71 0
-71 72 0
-12 -71 73 0
-73 74 0
-13 -73 75 0
-75 76 0
-14 -75 77 0
-77 78 0
-15 -77 79 0
-79 80 0
-16 -79 0
-2 52 0
-52 81 0
-3 -52 54 0
-54 82 0
-4 -54 56 0
-56 83 0
-5 -56 58 0
-58 84 0
-6 -58 60 0
-60 85 0
-7 -60 62 0
-62 86 0
-8 -62 64 0
-64 87 0
-9 -64 66 0
-66 88 0
-10 -66 68 0
-68 89 0
-11 -68 70 0
-70 90 0
-12 -70 72 0
-72 91 0
-13 -72 74 0
-74 92 0
-14 -74 76 0
-76 93 0
-15 -76 78 0
-78 94 0
-16 -78 80 0
-80 95 0
-17 -80 0
-3 81 0
-81 96 0
-4 -81 82 0
-82 97 0
-5 -82 83 0
-83 98 0
-6 -83 84 0
-84 99 0
-7 -84 85 0
-85 100 0
-8 -85 86 0
-86 101 0
-9 -86 87 0
-87 102 0
-10 -87 88 0
-88 103 0
-11 -88 89 0
-89 104 0
-12 -89 90 0
-90 105 0
-13 -90 91 0
-91 106 0
-14 -91 92 0
-92 107 0
-15 -92 93 0
-93 108 0
-16 -93 94 0
-94 109 0
-17 -94 95 0
-95 110 0
-18 -95 0
-4 96 0
-96 111 0
-5 -96 97 0
-97 112 0
-6 -97 98 0
-98 113 0
-7 -98 99 0
-99 114 0
-8 -99 100 0
-100 115 0
-9 -100 101 0
-101 116 0
-10 -101 102 0
-102 117 0
-11 -102 103 0
-103 118 0
-12 -103 104 0
-104 119 0
-13 -104 105 0
-105 120 0
-14 -105 106 0
-106 121 0
-15 -106 107 0
-107 122 0
-16 -107 108 0
-108 123 0
-17 -108 109 0
-109 124 0
-18 -109 110 0
-110 125 0
-19 -110 0
-5 111 0
-111 126 0
-6 -111 112 0
-112 127 0
-7 -112 113 0
-113 128 0
-8 -113 114 0
-114 129 0
-9 -114 115 0
-115 130 0
-10 -115 116 0
-116 131 0
-11 -116 117 0
-117 132 0
-12 -117 118 0
-118 133 0
-13 -118 119 0
-119 134 0
-14 -119 120 0
-120 135 0
-15 -120 121 0
-121 136 0
-16 -121 122 0
-122 137 0
-17 -122 123 0
-123 138 0
-18 -123 124 0
-124 139 0
-19 -124 125 0
-125 140 0
-20 -125 0
-6 126 0
-126 141 0
-7 -126 127 0
-127 142 0
-8 -127 128 0
-128 143 0
-9 -128 129 0
-129 144 0
-10 -129 130 0
-130 145 0
-11 -130 131 0
-131 146 0
-12 -131 132 0
-132 147 0
-13 -132 133 0
-133 148 0
-14 -133 134 0
-134 149 0
-15 -134 135 0
-135 150 0
-16 -135 136 0
-136 151 0
-17 -136 137 0
-137 152 0
-18 -137 138 0
-138 153 0
-19 -138 139 0
-139 154 0
-20 -139 140 0
-140 155 0
-21 -140 0
-7 141 0
-141 156 0
-8 -141 142 0
-142 157 0
-9 -142 143 0
-143 158 0
-10 -143 144 0
-144 159 0
-11 -144 145 0
-145 160 0
-12 -145 146 0
-146 161 0
-13 -146 147 0
-147 162 0
-14 -147 148 0
-148 163 0
-15 -148 149 0
-149 164 0
-16 -149 150 0
-150 165 0
-17 -150 151 0
-151 166 0
-18 -151 152 0
-152 167 0
-19 -152 153 0
-153 168 0
-20 -153 154 0
-154 169 0
-21 -154 155 0
-155 170 0
-22 -155 0
-8 156 0
-156 171 0
-9 -156 157 0
-157 172 0
-10 -157 158 0
-158 173 0
-11 -158 159 0
-159 174 0
-12 -159 160 0
-160 175 0
-13 -160 161 0
-161 176 0
-14 -161 162 0
-162 177 0
-15 -162 163 0
-163 178 0
-16 -163 164 0
-164 179 0
-17 -164 165 0
-165 180 0
-18 -165 166 0
-166 181 0
-19 -166 167 0
-167 182 0
-20 -167 168 0
-168 183 0
-21 -168 169 0
-169 184 0
-22 -169 170 0
-170 185 0
-23 -170 0
-9 171 0
-171 186 0
-10 -171 172 0
-172 187 0
-11 -172 173 0
-173 188 0
-12 -173 174 0
-174 189 0
-13 -174 175 0
-175 190 0
-14 -175 176 0
-176 191 0
-15 -176 177 0
-177 192 0
-16 -177 178 0
-178 193 0
-17 -178 179 0
-179 194 0
-18 -179 180 0
-180 195 0
-19 -180 181 0
-181 196 0
-20 -181 182 0
-182 197 0
-21 -182 183 0
-183 198 0
-22 -183 184 0
-184 199 0
-23 -184 185 0
-185 200 0
-24 -185 0
-10 186 0
-186 201 0
-11 -186 187 0
-187 202 0
-12 -187 188 0
-188 203 0
-13 -188 189 0
-189 204 0
-14 -189 190 0
-190 205 0
-15 -190 191 0
-191 206 0
-16 -191 192 0
-192 207 0
-17 -192 193 0
-193 208 0
-18 -193 194 0
-194 209 0
-19 -194 195 0
-195 210 0
-20 -195 196 0
-196 211 0
-21 -196 197 0
-197 212 0
-22 -197 198 0
-198 213 0
-23 -198 199 0
-199 214 0
-24 -199 200 0
-200 215 0
-25 -200 0
-11 201 0
-201 216 0
-12 -201 202 0
-202 217 0
-13 -202 203 0
-203 218 0
-14 -203 204 0
-204 219 0
-15 -204 205 0
-205 220 0
-16 -205 206 0
-206 221 0
-17 -206 207 0
-207 222 0
-18 -207 208 0
-208 223 0
-19 -208 209 0
-209 224 0
-20 -209 210 0
-210 225 0
-21 -210 211 0
-211 226 0
-22 -211 212 0
-212 227 0
-23 -212 213 0
-213 228 0
-24 -213 214 0
-214 229 0
-25 -214 215 0
-215 230 0
-26 -215 0
-12 216 0
-216 231 0
-13 -216 217 0
-217 232 0
-14 -217 218 0
-218 233 0
-15 -218 219 0
-219 234 0
-16 -219 220 0
-220 235 0
-17 -220 221 0
-221 236 0
-18 -221 222 0
-222 237 0
-19 -222 223 0
-223 238 0
-20 -223 224 0
-224 239 0
-21 -224 225 0
-225 240 0
-22 -225 226 0
-226 241 0
-23 -226 227 0
-227 242 0
-24 -227 228 0
-228 243 0
-25 -228 229 0
-229 244 0
-26 -229 230 0
-230 245 0
-27 -230 0
-13 231 0
-231 246 0
-14 -231 232 0
-232 247 0
-15 -232 233 0
-233 248 0
-16 -233 234 0
-234 249 0
-17 -234 235 0
-235 250 0
-18 -235 236 0
-236 251 0
-19 -236 237 0
-237 252 0
-20 -237 238 0
-238 253 0
-21 -238 239 0
-239 254 0
-22 -239 240 0
-240 255 0
-23 -240 241 0
-241 256 0
-24 -241 242 0
-242 257 0
-25 -242 243 0
-243 258 0
-26 -243 244 0
-244 259 0
-27 -244 245 0
-245 260 0
-28 -245 0
-14 246 0
-246 261 0
-15 -246 247 0
-247 262 0
-16 -247 248 0
-248 263 0
-17 -248 249 0
-249 264 0
-18 -249 250 0
-250 265 0
-19 -250 251 0
-251 266 0
-20 -251 252 0
-252 267 0
-21 -252 253 0
-253 268 0
-22 -253 254 0
-254 269 0
-23 -254 255 0
-255 270 0
-24 -255 256 0
-256 271 0
-25 -256 257 0
-257 272 0
-26 -257 258 0
-258 273 0
-27 -258 259 0
-259 274 0
-28 -259 260 0
-260 275 0
-29 -260 0
-15 261 0
-261 276 0
-16 -261 262 0
-262 277 0
-17 -262 263 0
-263 278 0
-18 -263 264 0
-264 279 0
-19 -264 265 0
-265 280 0
-20 -265 266 0
-266 281 0
-21 -266 267 0
-267 282 0
-22 -267 268 0
-268 283 0
-23 -268 269 0
-269 284 0
-24 -269 270 0
-270 285 0
-25 -270 271 0
-271 286 0
-26 -271 272 0
-272 287 0
-27 -272 273 0
-273 288 0
-28 -273 274 0
-274 289 0
-29 -274 275 0
-275 290 0
-30 -275 0
-16 276 0
-276 291 0
-17 -276 277 0
-277 292 0
-18 -277 278 0
-278 293 0
-19 -278 279 0
-279 294 0
-20 -279 280 0
-280 295 0
-21 -280 281 0
-281 296 0
-22 -281 282 0
-282 297 0
-23 -282 283 0
-283 298 0
-24 -283 284 0
-284 299 0
-25 -284 285 0
-285 300 0
-26 -285 286 0
-286 301 0
-27 -286 287 0
-287 302 0
-28 -287 288 0
-288 303 0
-29 -288 289 0
-289 304 0
-30 -289 290 0
-290 305 0
-31 -290 0
-17 291 0
-291 306 0
-18 -291 292 0
-292 307 0
-19 -292 293 0
-293 308 0
-20 -293 294 0
-294 309 0
-21 -294 295 0
-295 310 0
-22 -295 296 0
-296 311 0
-23 -296 297 0
-297 312 0
-24 -297 298 0
-298 313 0
-25 -298 299 0
-299 314 0
-26 -299 300 0
-300 315 0
-27 -300 301 0
-301 316 0
-28 -301 302 0
-302 317 0
-29 -302 303 0
-303 318 0
-30 -303 304 0
-304 319 0
-31 -304 305 0
-305 320 0
-32 -305 0
-18 306 0
-306 321 0
-19 -306 307 0
-307 322 0
-20 -307 308 0
-308 323 0
-21 -308 309 0
-309 324 0
-22 -309 310 0
-310 325 0
-23 -310 311 0
-311 326 0
-24 -311 312 0
-312 327 0
-25 -312 313 0
-313 328 0
-26 -313 314 0
-314 329 0
-27 -314 315 0
-315 330 0
-28 -315 316 0
-316 331 0
-29 -316 317 0
-317 332 0
-30 -317 318 0
-318 333 0
-31 -318 319 0
-319 334 0
-32 -319 320 0
-320 335 0
-33 -320 0
-19 321 0
-321 336 0
-20 -321 322 0
-322 337 0
-21 -322 323 0
-323 338 0
-22 -323 324 0
-324 339 0
-23 -324 325 0
-325 340 0
-24 -325 326 0
-326 341 0
-25 -326 327 0
-327 342 0
-26 -327 328 0
-328 343 0
-27 -328 329 0
-329 344 0
-28 -329 330 0
-330 345 0
-29 -330 331 0
-331 346 0
-30 -331 332 0
-332 347 0
-31 -332 333 0
-333 348 0
-32 -333 334 0
-334 349 0
-33 -334 335 0
-335 350 0
-34 -335 0
-20 336 0
-336 351 0
-21 -336 337 0
-337 352 0
-22 -337 338 0
-338 353 0
-23 -338 339 0
-339 354 0
-24 -339 340 0
-340 355 0
-25 -340 341 0
-341 356 0
-26 -341 342 0
-342 357 0
-27 -342 343 0
-343 358 0
-28 -343 344 0
-344 359 0
-29 -344 345 0
-345 360 0
-30 -345 346 0
-346 361 0
-31 -346 347 0
-347 362 0
-32 -347 348 0
-348 363 0
-33 -348 349 0
-349 364 0
-34 -349 350 0
-350 365 0
-35 -350 0
-21 351 0
-351 366 0
-22 -351 352 0
-352 367 0
-23 -352 353 0
-353 368 0
-24 -353 354 0
-354 369 0
-25 -354 355 0
-355 370 0
-26 -355 356 0
-356 371 0
-27 -356 357 0
-357 372 0
-28 -357 358 0
-358 373 0
-29 -358 359 0
-359 374 0
-30 -359 360 0
-360 375 0
-31 -360 361 0
-361 376 0
-32 -361 362 0
-362 377 0
-33 -362 363 0
-363 378 0
-34 -363 364 0
-364 379 0
-35 -364 365 0
-365 380 0
-36 -365 0
-22 366 0
-366 381 0
-23 -366 367 0
-367 382 0
-24 -367 368 0
-368 383 0
-25 -368 369 0
-369 384 0
-26 -369 370 0
-370 385 0
-27 -370 371 0
-371 386 0
-28 -371 372 0
-372 387 0
-29 -372 373 0
-373 388 0
-30 -373 374 0
-374 389 0
-31 -374 375 0
-375 390 0
-32 -375 376 0
-376 391 0
-33 -376 377 0
-377 392 0
-34 -377 378 0
-378 393 0
-35 -378 379 0
-379 394 0
-36 -379 380 0
-380 395 0
-37 -380 0
-23 381 0
-381 396 0
-24 -381 382 0
-382 397 0
-25 -382 383 0
-383 398 0
-26 -383 384 0
-384 399 0
-27 -384 385 0
-385 400 0
-28 -385 386 0
-386 401 0
-29 -386 387 0
-387 402 0
-30 -387 388 0
-388 403 0
-31 -388 389 0
-389 404 0
-32 -389 390 0
-390 405 0
-33 -390 391 0
-391 406 0
-34 -391 392 0
-392 407 0
-35 -392 393 0
-393 408 0
-36 -393 394 0
-394 409 0
-37 -394 395 0
-395 410 0
-38 -395 0
-24 396 0
-396 411 0
-25 -396 397 0
-397 412 0
-26 -397 398 0
-398 413 0
-27 -398 399 0
-399 414 0
-28 -399 400 0
-400 415 0
-29 -400 401 0
-401 416 0
-30 -401 402 0
-402 417 0
-31 -402 403 0
-403 418 0
-32 -403 404 0
-404 419 0
-33 -404 405 0
-405 420 0
-34 -405 406 0
-406 421 0
-35 -406 407 0
-407 422 0
-36 -407 408 0
-408 423 0
-37 -408 409 0
-409 424 0
-38 -409 410 0
-410 425 0
-39 -410 0
-25 411 0
-411 426 0
-26 -411 412 0
-412 427 0
-27 -412 413 0
-413 428 0
-28 -413 414 0
-414 429 0
-29 -414 415 0
-415 430 0
-30 -415 416 0
-416 431 0
-31 -416 417 0
-417 432 0
-32 -417 418 0
-418 433 0
-33 -418 419 0
-419 434 0
-34 -419 420 0
-420 435 0
-35 -420 421 0
-421 436 0
-36 -421 422 0
-422 437 0
-37 -422 423 0
-423 438 0
-38 -423 424 0
-424 439 0
-39 -424 425 0
-425 440 0
-40 -425 0
-26 426 0
-426 441 0
-27 -426 427 0
-427 442 0
-28 -427 428 0
-428 443 0
-29 -428 429 0
-429 444 0
-30 -429 430 0
-430 445 0
-31 -430 431 0
-431 446 0
-32 -431 432 0
-432 447 0
-33 -432 433 0
-433 448 0
-34 -433 434 0
-434 449 0
-35 -434 435 0
-435 450 0
-36 -435 436 0
-436 451 0
-37 -436 437 0
-437 452 0
-38 -437 438 0
-438 453 0
-39 -438 439 0
-439 454 0
-40 -439 440 0
-440 455 0
-41 -440 0
-27 441 0
-441 456 0
-28 -441 442 0
-442 457 0
-29 -442 443 0
-443 458 0
-30 -443 444 0
-444 459 0
-31 -444 445 0
-445 460 0
-32 -445 446 0
-446 461 0
-33 -446 447 0
-447 462 0
-34 -447 448 0
-448 463 0
-35 -448 449 0
-449 464 0
-36 -449 450 0
-450 465 0
-37 -450 451 0
-451 466 0
-38 -451 452 0
-452 467 0
-39 -452 453 0
-453 468 0
-40 -453 454 0
-454 469 0
-41 -454 455 0
-455 470 0
-42 -455 0
-28 456 0
-456 471 0
-29 -456 457 0
-457 472 0
-30 -457 458 0
-458 473 0
-31 -458 459 0
-459 474 0
-32 -459 460 0
-460 475 0
-33 -460 461 0
-461 476 0
-34 -461 462 0
-462 477 0
-35 -462 463 0
-463 478 0
-36 -463 464 0
-464 479 0
-37 -464 465 0
-465 480 0
-38 -465 466 0
-466 481 0
-39 -466 467 0
-467 482 0
-40 -467 468 0
-468 483 0
-41 -468 469 0
-469 484 0
-42 -469 470 0
-470 485 0
-43 -470 0
-29 471 0
-471 486 0
-30 -471 472 0
-472 487 0
-31 -472 473 0
-473 488 0
-32 -473 474 0
-474 489 0
-33 -474 475 0
-475 490 0
-34 -475 476 0
-476 491 0
-35 -476 477 0
-477 492 0
-36 -477 478 0
-478 493 0
-37 -478 479 0
-479 494 0
-38 -479 480 0
-480 495 0
-39 -480 481 0
-481 496 0
-40 -481 482 0
-482 497 0
-41 -482 483 0
-483 498 0
-42 -483 484 0
-484 499 0
-43 -484 485 0
-485 500 0
-44 -485 0
-30 486 0
-486 501 0
-31 -486 487 0
-487 502 0
-32 -487 488 0
-488 503 0
-33 -488 489 0
-489 504 0
-34 -489 490 0
-490 505 0
-35 -490 491 0
-491 506 0
-36 -491 492 0
-492 507 0
-37 -492 493 0
-493 508 0
-38 -493 494 0
-494 509 0
-39 -494 495 0
-495 510 0
-40 -495 496 0
-496 511 0
-41 -496 497 0
-497 512 0
-42 -497 498 0
-498 513 0
-43 -498 499 0
-499 514 0
-44 -499 500 0
-500 515 0
-45 -500 0
-31 501 0
-501 516 0
-32 -501 502 0
-502 517 0
-33 -502 503 0
-503 518 0
-34 -503 504 0
-504 519 0
-35 -504 505 0
-505 520 0
-36 -505 506 0
-506 521 0
-37 -506 507 0
-507 522 0
-38 -507 508 0
-508 523 0
-39 -508 509 0
-509 524 0
-40 -509 510 0
-510 525 0
-41 -510 511 0
-511 526 0
-42 -511 512 0
-512 527 0
-43 -512 513 0
-513 528 0
-44 -513 514 0
-514 529 0
-45 -514 515 0
-515 530 0
-46 -515 0
-32 516 0
-516 531 0
-33 -516 517 0
-517 532 0
-34 -517 518 0
-518 533 0
-35 -518 519 0
-519 534 0
-36 -519 520 0
-520 535 0
-37 -520 521 0
-521 536 0
-38 -521 522 0
-522 537 0
-39 -522 523 0
-523 538 0
-40 -523 524 0
-524 539 0
-41 -524 525 0
-525 540 0
-42 -525 526 0
-526 541 0
-43 -526 527 0
-527 542 0
-44 -527 528 0
-528 543 0
-45 -528 529 0
-529 544 0
-46 -529 530 0
-530 545 0
-47 -530 0
-33 531 0
-531 546 0
-34 -531 532 0
-532 547 0
-35 -532 533 0
-533 548 0
-36 -533 534 0
-534 549 0
-37 -534 535 0
-535 550 0
-38 -535 536 0
-536 551 0
-39 -536 537 0
-537 552 0
-40 -537 538 0
-538 553 0
-41 -538 539 0
-539 554 0
-42 -539 540 0
-540 555 0
-43 -540 541 0
-541 556 0
-44 -541 542 0
-542 557 0
-45 -542 543 0
-543 558 0
-46 -543 544 0
-544 559 0
-47 -544 545 0
-545 560 0
-48 -545 0
-34 546 0
-546 561 0
-35 -546 547 0
-547 562 0
-36 -547 548 0
-548 563 0
-37 -548 549 0
-549 564 0
-38 -549 550 0
-550 565 0
-39 -550 551 0
-551 566 0
-40 -551 552 0
-552 567 0
-41 -552 553 0
-553 568 0
-42 -553 554 0
-554 569 0
-43 -554 555 0
-555 570 0
-44 -555 556 0
-556 571 0
-45 -556 557 0
-557 572 0
-46 -557 558 0
-558 573 0
-47 -558 559 0
-559 574 0
-48 -559 560 0
-560 575 0
-49 -560 0
-35 561 0
-36 -561 562 0
-37 -562 563 0
-38 -563 564 0
-39 -564 565 0
-40 -565 566 0
-41 -566 567 0
-42 -567 568 0
-43 -568 569 0
-44 -569 570 0
-45 -570 571 0
-46 -571 572 0
-47 -572 573 0
-48 -573 574 0
-49 -574 575 0
-50 -575 0
