c R3+R6 ids at-most-15: x(v)=v+1 for v=0..49; aux = Sinz sequential counter
p cnf 785 1629
1 2 31 33 0
1 2 34 35 0
3 4 31 34 0
3 4 33 36 0
5 6 32 37 0
5 6 38 39 0
7 8 32 38 0
7 8 37 40 0
9 10 33 35 0
9 10 37 39 0
11 12 34 36 0
11 12 38 40 0
13 14 35 39 0
13 14 36 40 0
15 16 41 44 0
15 16 42 43 0
17 18 41 43 0
17 18 45 46 0
19 20 42 44 0
19 20 47 48 0
21 22 43 45 0
21 22 49 50 0
23 24 44 47 0
23 24 46 49 0
25 26 45 50 0
25 26 46 48 0
27 28 47 49 0
27 28 48 50 0
29 30 31 32 0
29 30 41 42 0
1 3 29 31 0
5 7 29 32 0
1 4 9 33 0
2 3 11 34 0
2 9 13 35 0
4 11 14 36 0
5 8 10 37 0
6 7 12 38 0
6 10 13 39 0
8 12 14 40 0
15 17 30 41 0
16 19 30 42 0
16 17 21 43 0
15 19 23 44 0
18 21 25 45 0
18 24 26 46 0
20 23 27 47 0
20 26 28 48 0
22 24 27 49 0
22 25 28 50 0
-1 -2 0
-1 -31 0
-1 -33 0
-2 -34 0
-2 -35 0
-3 -4 0
-3 -31 0
-3 -34 0
-4 -33 0
-4 -36 0
-5 -6 0
-5 -32 0
-5 -37 0
-6 -38 0
-6 -39 0
-7 -8 0
-7 -32 0
-7 -38 0
-8 -37 0
-8 -40 0
-9 -10 0
-9 -33 0
-9 -35 0
-10 -37 0
-10 -39 0
-11 -12 0
-11 -34 0
-11 -36 0
-12 -38 0
-12 -40 0
-13 -14 0
-13 -35 0
-13 -39 0
-14 -36 0
-14 -40 0
-15 -16 0
-15 -41 0
-15 -44 0
-16 -42 0
-16 -43 0
-17 -18 0
-17 -41 0
-17 -43 0
-18 -45 0
-18 -46 0
-19 -20 0
-19 -42 0
-19 -44 0
-20 -47 0
-20 -48 0
-21 -22 0
-21 -43 0
-21 -45 0
-22 -49 0
-22 -50 0
-23 -24 0
-23 -44 0
-23 -47 0
-24 -46 0
-24 -49 0
-25 -26 0
-25 -45 0
-25 -50 0
-26 -46 0
-26 -48 0
-27 -28 0
-27 -47 0
-27 -49 0
-28 -48 0
-28 -50 0
-29 -30 0
-29 -31 0
-29 -32 0
-30 -41 0
-30 -42 0
-1 51 0
-52 0
-53 0
-54 0
-55 0
-56 0
-57 0
-58 0
-59 0
-60 0
-61 0
-62 0
-63 0
-64 0
-65 0
-2 66 0
-51 66 0
-2 -51 67 0
-52 67 0
-2 -52 68 0
-53 68 0
-2 -53 69 0
-54 69 0
-2 -54 70 0
-55 70 0
-2 -55 71 0
-56 71 0
-2 -56 72 0
-57 72 0
-2 -57 73 0
-58 73 0
-2 -58 74 0
-59 74 0
-2 -59 75 0
-60 75 0
-2 -60 76 0
-61 76 0
-2 -61 77 0
-62 77 0
-2 -62 78 0
-63 78 0
-2 -63 79 0
-64 79 0
-2 -64 80 0
-65 80 0
-2 -65 0
-3 81 0
-66 81 0
-3 -66 82 0
-67 82 0
-3 -67 83 0
-68 83 0
-3 -68 84 0
-69 84 0
-3 -69 85 0
-70 85 0
-3 -70 86 0
-71 86 0
-3 -71 87 0
-72 87 0
-3 -72 88 0
-73 88 0
-3 -73 89 0
-74 89 0
-3 -74 90 0
-75 90 0
-3 -75 91 0
-76 91 0
-3 -76 92 0
-77 92 0
-3 -77 93 0
-78 93 0
-3 -78 94 0
-79 94 0
-3 -79 95 0
-80 95 0
-3 -80 0
-4 96 0
-81 96 0
-4 -81 97 0
-82 97 0
-4 -82 98 0
-83 98 0
-4 -83 99 0
-84 99 0
-4 -84 100 0
-85 100 0
-4 -85 101 0
-86 101 0
-4 -86 102 0
-87 102 0
-4 -87 103 0
-88 103 0
-4 -88 104 0
-89 104 0
-4 -89 105 0
-90 105 0
-4 -90 106 0
-91 106 0
-4 -91 107 0
-92 107 0
-4 -92 108 0
-93 108 0
-4 -93 109 0
-94 109 0
-4 -94 110 0
-95 110 0
-4 -95 0
-5 111 0
-96 111 0
-5 -96 112 0
-97 112 0
-5 -97 113 0
-98 113 0
-5 -98 114 0
-99 114 0
-5 -99 115 0
-100 115 0
-5 -100 116 0
-101 116 0
-5 -101 117 0
-102 117 0
-5 -102 118 0
-103 118 0
-5 -103 119 0
-104 119 0
-5 -104 120 0
-105 120 0
-5 -105 121 0
-106 121 0
-5 -106 122 0
-107 122 0
-5 -107 123 0
-108 123 0
-5 -108 124 0
-109 124 0
-5 -109 125 0
-110 125 0
-5 -110 0
-6 126 0
-111 126 0
-6 -111 127 0
-112 127 0
-6 -112 128 0
-113 128 0
-6 -113 129 0
-114 129 0
-6 -114 130 0
-115 130 0
-6 -115 131 0
-116 131 0
-6 -116 132 0
-117 132 0
-6 -117 133 0
-118 133 0
-6 -118 134 0
-119 134 0
-6 -119 135 0
-120 135 0
-6 -120 136 0
-121 136 0
-6 -121 137 0
-122 137 0
-6 -122 138 0
-123 138 0
-6 -123 139 0
-124 139 0
-6 -124 140 0
-125 140 0
-6 -125 0
-7 141 0
-126 141 0
-7 -126 142 0
-127 142 0
-7 -127 143 0
-128 143 0
-7 -128 144 0
-129 144 0
-7 -129 145 0
-130 145 0
-7 -130 146 0
-131 146 0
-7 -131 147 0
-132 147 0
-7 -132 148 0
-133 148 0
-7 -133 149 0
-134 149 0
-7 -134 150 0
-135 150 0
-7 -135 151 0
-136 151 0
-7 -136 152 0
-137 152 0
-7 -137 153 0
-138 153 0
-7 -138 154 0
-139 154 0
-7 -139 155 0
-140 155 0
-7 -140 0
-8 156 0
-141 156 0
-8 -141 157 0
-142 157 0
-8 -142 158 0
-143 158 0
-8 -143 159 0
-144 159 0
-8 -144 160 0
-145 160 0
-8 -145 161 0
-146 161 0
-8 -146 162 0
-147 162 0
-8 -147 163 0
-148 163 0
-8 -148 164 0
-149 164 0
-8 -149 165 0
-150 165 0
-8 -150 166 0
-151 166 0
-8 -151 167 0
-152 167 0
-8 -152 168 0
-153 168 0
-8 -153 169 0
-154 169 0
-8 -154 170 0
-155 170 0
-8 -155 0
-9 171 0
-156 171 0
-9 -156 172 0
-157 172 0
-9 -157 173 0
-158 173 0
-9 -158 174 0
-159 174 0
-9 -159 175 0
-160 175 0
-9 -160 176 0
-161 176 0
-9 -161 177 0
-162 177 0
-9 -162 178 0
-163 178 0
-9 -163 179 0
-164 179 0
-9 -164 180 0
-165 180 0
-9 -165 181 0
-166 181 0
-9 -166 182 0
-167 182 0
-9 -167 183 0
-168 183 0
-9 -168 184 0
-169 184 0
-9 -169 185 0
-170 185 0
-9 -170 0
-10 186 0
-171 186 0
-10 -171 187 0
-172 187 0
-10 -172 188 0
-173 188 0
-10 -173 189 0
-174 189 0
-10 -174 190 0
-175 190 0
-10 -175 191 0
-176 191 0
-10 -176 192 0
-177 192 0
-10 -177 193 0
-178 193 0
-10 -178 194 0
-179 194 0
-10 -179 195 0
-180 195 0
-10 -180 196 0
-181 196 0
-10 -181 197 0
-182 197 0
-10 -182 198 0
-183 198 0
-10 -183 199 0
-184 199 0
-10 -184 200 0
-185 200 0
-10 -185 0
-11 201 0
-186 201 0
-11 -186 202 0
-187 202 0
-11 -187 203 0
-188 203 0
-11 -188 204 0
-189 204 0
-11 -189 205 0
-190 205 0
-11 -190 206 0
-191 206 0
-11 -191 207 0
-192 207 0
-11 -192 208 0
-193 208 0
-11 -193 209 0
-194 209 0
-11 -194 210 0
-195 210 0
-11 -195 211 0
-196 211 0
-11 -196 212 0
-197 212 0
-11 -197 213 0
-198 213 0
-11 -198 214 0
-199 214 0
-11 -199 215 0
-200 215 0
-11 -200 0
-12 216 0
-201 216 0
-12 -201 217 0
-202 217 0
-12 -202 218 0
-203 218 0
-12 -203 219 0
-204 219 0
-12 -204 220 0
-205 220 0
-12 -205 221 0
-206 221 0
-12 -206 222 0
-207 222 0
-12 -207 223 0
-208 223 0
-12 -208 224 0
-209 224 0
-12 -209 225 0
-210 225 0
-12 -210 226 0
-211 226 0
-12 -211 227 0
-212 227 0
-12 -212 228 0
-213 228 0
-12 -213 229 0
-214 229 0
-12 -214 230 0
-215 230 0
-12 -215 0
-13 231 0
-216 231 0
-13 -216 232 0
-217 232 0
-13 -217 233 0
-218 233 0
-13 -218 234 0
-219 234 0
-13 -219 235 0
-220 235 0
-13 -220 236 0
-221 236 0
-13 -221 237 0
-222 237 0
-13 -222 238 0
-223 238 0
-13 -223 239 0
-224 239 0
-13 -224 240 0
-225 240 0
-13 -225 241 0
-226 241 0
-13 -226 242 0
-227 242 0
-13 -227 243 0
-228 243 0
-13 -228 244 0
-229 244 0
-13 -229 245 0
-230 245 0
-13 -230 0
-14 246 0
-231 246 0
-14 -231 247 0
-232 247 0
-14 -232 248 0
-233 248 0
-14 -233 249 0
-234 249 0
-14 -234 250 0
-235 250 0
-14 -235 251 0
-236 251 0
-14 -236 252 0
-237 252 0
-14 -237 253 0
-238 253 0
-14 -238 254 0
-239 254 0
-14 -239 255 0
-240 255 0
-14 -240 256 0
-241 256 0
-14 -241 257 0
-242 257 0
-14 -242 258 0
-243 258 0
-14 -243 259 0
-244 259 0
-14 -244 260 0
-245 260 0
-14 -245 0
-15 261 0
-246 261 0
-15 -246 262 0
-247 262 0
-15 -247 263 0
-248 263 0
-15 -248 264 0
-249 264 0
-15 -249 265 0
-250 265 0
-15 -250 266 0
-251 266 0
-15 -251 267 0
-252 267 0
-15 -252 268 0
-253 268 0
-15 -253 269 0
-254 269 0
-15 -254 270 0
-255 270 0
-15 -255 271 0
-256 271 0
-15 -256 272 0
-257 272 0
-15 -257 273 0
-258 273 0
-15 -258 274 0
-259 274 0
-15 -259 275 0
-260 275 0
-15 -260 0
-16 276 0
-261 276 0
-16 -261 277 0
-262 277 0
-16 -262 278 0
-263 278 0
-16 -263 279 0
-264 279 0
-16 -264 280 0
-265 280 0
-16 -265 281 0
-266 281 0
-16 -266 282 0
-267 282 0
-16 -267 283 0
-268 283 0
-16 -268 284 0
-269 284 0
-16 -269 285 0
-270 285 0
-16 -270 286 0
-271 286 0
-16 -271 287 0
-272 287 0
-16 -272 288 0
-273 288 0
-16 -273 289 0
-274 289 0
-16 -274 290 0
-275 290 0
-16 -275 0
-17 291 0
-276 291 0
-17 -276 292 0
-277 292 0
-17 -277 293 0
-278 293 0
-17 -278 294 0
-279 294 0
-17 -279 295 0
-280 295 0
-17 -280 296 0
-281 296 0
-17 -281 297 0
-282 297 0
-17 -282 298 0
-283 298 0
-17 -283 299 0
-284 299 0
-17 -284 300 0
-285 300 0
-17 -285 301 0
-286 301 0
-17 -286 302 0
-287 302 0
-17 -287 303 0
-288 303 0
-17 -288 304 0
-289 304 0
-17 -289 305 0
-290 305 0
-17 -290 0
-18 306 0
-291 306 0
-18 -291 307 0
-292 307 0
-18 -292 308 0
-293 308 0
-18 -293 309 0
-294 309 0
-18 -294 310 0
-295 310 0
-18 -295 311 0
-296 311 0
-18 -296 312 0
-297 312 0
-18 -297 313 0
-298 313 0
-18 -298 314 0
-299 314 0
-18 -299 315 0
-300 315 0
-18 -300 316 0
-301 316 0
-18 -301 317 0
-302 317 0
-18 -302 318 0
-303 318 0
-18 -303 319 0
-304 319 0
-18 -304 320 0
-305 320 0
-18 -305 0
-19 321 0
-306 321 0
-19 -306 322 0
-307 322 0
-19 -307 323 0
-308 323 0
-19 -308 324 0
-309 324 0
-19 -309 325 0
-310 325 0
-19 -310 326 0
-311 326 0
-19 -311 327 0
-312 327 0
-19 -312 328 0
-313 328 0
-19 -313 329 0
-314 329 0
-19 -314 330 0
-315 330 0
-19 -315 331 0
-316 331 0
-19 -316 332 0
-317 332 0
-19 -317 333 0
-318 333 0
-19 -318 334 0
-319 334 0
-19 -319 335 0
-320 335 0
-19 -320 0
-20 336 0
-321 336 0
-20 -321 337 0
-322 337 0
-20 -322 338 0
-323 338 0
-20 -323 339 0
-324 339 0
-20 -324 340 0
-325 340 0
-20 -325 341 0
-326 341 0
-20 -326 342 0
-327 342 0
-20 -327 343 0
-328 343 0
-20 -328 344 0
-329 344 0
-20 -329 345 0
-330 345 0
-20 -330 346 0
-331 346 0
-20 -331 347 0
-332 347 0
-20 -332 348 0
-333 348 0
-20 -333 349 0
-334 349 0
-20 -334 350 0
-335 350 0
-20 -335 0
-21 351 0
-336 351 0
-21 -336 352 0
-337 352 0
-21 -337 353 0
-338 353 0
-21 -338 354 0
-339 354 0
-21 -339 355 0
-340 355 0
-21 -340 356 0
-341 356 0
-21 -341 357 0
-342 357 0
-21 -342 358 0
-343 358 0
-21 -343 359 0
-344 359 0
-21 -344 360 0
-345 360 0
-21 -345 361 0
-346 361 0
-21 -346 362 0
-347 362 0
-21 -347 363 0
-348 363 0
-21 -348 364 0
-349 364 0
-21 -349 365 0
-350 365 0
-21 -350 0
-22 366 0
-351 366 0
-22 -351 367 0
-352 367 0
-22 -352 368 0
-353 368 0
-22 -353 369 0
-354 369 0
-22 -354 370 0
-355 370 0
-22 -355 371 0
-356 371 0
-22 -356 372 0
-357 372 0
-22 -357 373 0
-358 373 0
-22 -358 374 0
-359 374 0
-22 -359 375 0
-360 375 0
-22 -360 376 0
-361 376 0
-22 -361 377 0
-362 377 0
-22 -362 378 0
-363 378 0
-22 -363 379 0
-364 379 0
-22 -364 380 0
-365 380 0
-22 -365 0
-23 381 0
-366 381 0
-23 -366 382 0
-367 382 0
-23 -367 383 0
-368 383 0
-23 -368 384 0
-369 384 0
-23 -369 385 0
-370 385 0
-23 -370 386 0
-371 386 0
-23 -371 387 0
-372 387 0
-23 -372 388 0
-373 388 0
-23 -373 389 0
-374 389 0
-23 -374 390 0
-375 390 0
-23 -375 391 0
-376 391 0
-23 -376 392 0
-377 392 0
-23 -377 393 0
-378 393 0
-23 -378 394 0
-379 394 0
-23 -379 395 0
-380 395 0
-23 -380 0
-24 396 0
-381 396 0
-24 -381 397 0
-382 397 0
-24 -382 398 0
-383 398 0
-24 -383 399 0
-384 399 0
-24 -384 400 0
-385 400 0
-24 -385 401 0
-386 401 0
-24 -386 402 0
-387 402 0
-24 -387 403 0
-388 403 0
-24 -388 404 0
-389 404 0
-24 -389 405 0
-390 405 0
-24 -390 406 0
-391 406 0
-24 -391 407 0
-392 407 0
-24 -392 408 0
-393 408 0
-24 -393 409 0
-394 409 0
-24 -394 410 0
-395 410 0
-24 -395 0
-25 411 0
-396 411 0
-25 -396 412 0
-397 412 0
-25 -397 413 0
-398 413 0
-25 -398 414 0
-399 414 0
-25 -399 415 0
-400 415 0
-25 -400 416 0
-401 416 0
-25 -401 417 0
-402 417 0
-25 -402 418 0
-403 418 0
-25 -403 419 0
-404 419 0
-25 -404 420 0
-405 420 0
-25 -405 421 0
-406 421 0
-25 -406 422 0
-407 422 0
-25 -407 423 0
-408 423 0
-25 -408 424 0
-409 424 0
-25 -409 425 0
-410 425 0
-25 -410 0
-26 426 0
-411 426 0
-26 -411 427 0
-412 427 0
-26 -412 428 0
-413 428 0
-26 -413 429 0
-414 429 0
-26 -414 430 0
-415 430 0
-26 -415 431 0
-416 431 0
-26 -416 432 0
-417 432 0
-26 -417 433 0
-418 433 0
-26 -418 434 0
-419 434 0
-26 -419 435 0
-420 435 0
-26 -420 436 0
-421 436 0
-26 -421 437 0
-422 437 0
-26 -422 438 0
-423 438 0
-26 -423 439 0
-424 439 0
-26 -424 440 0
-425 440 0
-26 -425 0
-27 441 0
-426 441 0
-27 -426 442 0
-427 442 0
-27 -427 443 0
-428 443 0
-27 -428 444 0
-429 444 0
-27 -429 445 0
-430 445 0
-27 -430 446 0
-431 446 0
-27 -431 447 0
-432 447 0
-27 -432 448 0
-433 448 0
-27 -433 449 0
-434 449 0
-27 -434 450 0
-435 450 0
-27 -435 451 0
-436 451 0
-27 -436 452 0
-437 452 0
-27 -437 453 0
-438 453 0
-27 -438 454 0
-439 454 0
-27 -439 455 0
-440 455 0
-27 -440 0
-28 456 0
-441 456 0
-28 -441 457 0
-442 457 0
-28 -442 458 0
-443 458 0
-28 -443 459 0
-444 459 0
-28 -444 460 0
-445 460 0
-28 -445 461 0
-446 461 0
-28 -446 462 0
-447 462 0
-28 -447 463 0
-448 463 0
-28 -448 464 0
-449 464 0
-28 -449 465 0
-450 465 0
-28 -450 466 0
-451 466 0
-28 -451 467 0
-452 467 0
-28 -452 468 0
-453 468 0
-28 -453 469 0
-454 469 0
-28 -454 470 0
-455 470 0
-28 -455 0
-29 471 0
-456 471 0
-29 -456 472 0
-457 472 0
-29 -457 473 0
-458 473 0
-29 -458 474 0
-459 474 0
-29 -459 475 0
-460 475 0
-29 -460 476 0
-461 476 0
-29 -461 477 0
-462 477 0
-29 -462 478 0
-463 478 0
-29 -463 479 0
-464 479 0
-29 -464 480 0
-465 480 0
-29 -465 481 0
-466 481 0
-29 -466 482 0
-467 482 0
-29 -467 483 0
-468 483 0
-29 -468 484 0
-469 484 0
-29 -469 485 0
-470 485 0
-29 -470 0
-30 486 0
-471 486 0
-30 -471 487 0
-472 487 0
-30 -472 488 0
-473 488 0
-30 -473 489 0
-474 489 0
-30 -474 490 0
-475 490 0
-30 -475 491 0
-476 491 0
-30 -476 492 0
-477 492 0
-30 -477 493 0
-478 493 0
-30 -478 494 0
-479 494 0
-30 -479 495 0
-480 495 0
-30 -480 496 0
-481 496 0
-30 -481 497 0
-482 497 0
-30 -482 498 0
-483 498 0
-30 -483 499 0
-484 499 0
-30 -484 500 0
-485 500 0
-30 -485 0
-31 501 0
-486 501 0
-31 -486 502 0
-487 502 0
-31 -487 503 0
-488 503 0
-31 -488 504 0
-489 504 0
-31 -489 505 0
-490 505 0
-31 -490 506 0
-491 506 0
-31 -491 507 0
-492 507 0
-31 -492 508 0
-493 508 0
-31 -493 509 0
-494 509 0
-31 -494 510 0
-495 510 0
-31 -495 511 0
-496 511 0
-31 -496 512 0
-497 512 0
-31 -497 513 0
-498 513 0
-31 -498 514 0
-499 514 0
-31 -499 515 0
-500 515 0
-31 -500 0
-32 516 0
-501 516 0
-32 -501 517 0
-502 517 0
-32 -502 518 0
-503 518 0
-32 -503 519 0
-504 519 0
-32 -504 520 0
-505 520 0
-32 -505 521 0
-506 521 0
-32 -506 522 0
-507 522 0
-32 -507 523 0
-508 523 0
-32 -508 524 0
-509 524 0
-32 -509 525 0
-510 525 0
-32 -510 526 0
-511 526 0
-32 -511 527 0
-512 527 0
-32 -512 528 0
-513 528 0
-32 -513 529 0
-514 529 0
-32 -514 530 0
-515 530 0
-32 -515 0
-33 531 0
-516 531 0
-33 -516 532 0
-517 532 0
-33 -517 533 0
-518 533 0
-33 -518 534 0
-519 534 0
-33 -519 535 0
-520 535 0
-33 -520 536 0
-521 536 0
-33 -521 537 0
-522 537 0
-33 -522 538 0
-523 538 0
-33 -523 539 0
-524 539 0
-33 -524 540 0
-525 540 0
-33 -525 541 0
-526 541 0
-33 -526 542 0
-527 542 0
-33 -527 543 0
-528 543 0
-33 -528 544 0
-529 544 0
-33 -529 545 0
-530 545 0
-33 -530 0
-34 546 0
-531 546 0
-34 -531 547 0
-532 547 0
-34 -532 548 0
-533 548 0
-34 -533 549 0
-534 549 0
-34 -534 550 0
-535 550 0
-34 -535 551 0
-536 551 0
-34 -536 552 0
-537 552 0
-34 -537 553 0
-538 553 0
-34 -538 554 0
-539 554 0
-34 -539 555 0
-540 555 0
-34 -540 556 0
-541 556 0
-34 -541 557 0
-542 557 0
-34 -542 558 0
-543 558 0
-34 -543 559 0
-544 559 0
-34 -544 560 0
-545 560 0
-34 -545 0
-35 561 0
-546 561 0
-35 -546 562 0
-547 562 0
-35 -547 563 0
-548 563 0
-35 -548 564 0
-549 564 0
-35 -549 565 0
-550 565 0
-35 -550 566 0
-551 566 0
-35 -551 567 0
-552 567 0
-35 -552 568 0
-553 568 0
-35 -553 569 0
-554 569 0
-35 -554 570 0
-555 570 0
-35 -555 571 0
-556 571 0
-35 -556 572 0
-557 572 0
-35 -557 573 0
-558 573 0
-35 -558 574 0
-559 574 0
-35 -559 575 0
-560 575 0
-35 -560 0
-36 576 0
-561 576 0
-36 -561 577 0
-562 577 0
-36 -562 578 0
-563 578 0
-36 -563 579 0
-564 579 0
-36 -564 580 0
-565 580 0
-36 -565 581 0
-566 581 0
-36 -566 582 0
-567 582 0
-36 -567 583 0
-568 583 0
-36 -568 584 0
-569 584 0
-36 -569 585 0
-570 585 0
-36 -570 586 0
-571 586 0
-36 -571 587 0
-572 587 0
-36 -572 588 0
-573 588 0
-36 -573 589 0
-574 589 0
-36 -574 590 0
-575 590 0
-36 -575 0
-37 591 0
-576 591 0
-37 -576 592 0
-577 592 0
-37 -577 593 0
-578 593 0
-37 -578 594 0
-579 594 0
-37 -579 595 0
-580 595 0
-37 -580 596 0
-581 596 0
-37 -581 597 0
-582 597 0
-37 -582 598 0
-583 598 0
-37 -583 599 0
-584 599 0
-37 -584 600 0
-585 600 0
-37 -585 601 0
-586 601 0
-37 -586 602 0
-587 602 0
-37 -587 603 0
-588 603 0
-37 -588 604 0
-589 604 0
-37 -589 605 0
-590 605 0
-37 -590 0
-38 606 0
-591 606 0
-38 -591 607 0
-592 607 0
-38 -592 608 0
-593 608 0
-38 -593 609 0
-594 609 0
-38 -594 610 0
-595 610 0
-38 -595 611 0
-596 611 0
-38 -596 612 0
-597 612 0
-38 -597 613 0
-598 613 0
-38 -598 614 0
-599 614 0
-38 -599 615 0
-600 615 0
-38 -600 616 0
-601 616 0
-38 -601 617 0
-602 617 0
-38 -602 618 0
-603 618 0
-38 -603 619 0
-604 619 0
-38 -604 620 0
-605 620 0
-38 -605 0
-39 621 0
-606 621 0
-39 -606 622 0
-607 622 0
-39 -607 623 0
-608 623 0
-39 -608 624 0
-609 624 0
-39 -609 625 0
-610 625 0
-39 -610 626 0
-611 626 0
-39 -611 627 0
-612 627 0
-39 -612 628 0
-613 628 0
-39 -613 629 0
-614 629 0
-39 -614 630 0
-615 630 0
-39 -615 631 0
-616 631 0
-39 -616 632 0
-617 632 0
-39 -617 633 0
-618 633 0
-39 -618 634 0
-619 634 0
-39 -619 635 0
-620 635 0
-39 -620 0
-40 636 0
-621 636 0
-40 -621 637 0
-622 637 0
-40 -622 638 0
-623 638 0
-40 -623 639 0
-624 639 0
-40 -624 640 0
-625 640 0
-40 -625 641 0
-626 641 0
-40 -626 642 0
-627 642 0
-40 -627 643 0
-628 643 0
-40 -628 644 0
-629 644 0
-40 -629 645 0
-630 645 0
-40 -630 646 0
-631 646 0
-40 -631 647 0
-632 647 0
-40 -632 648 0
-633 648 0
-40 -633 649 0
-634 649 0
-40 -634 650 0
-635 650 0
-40 -635 0
-41 651 0
-636 651 0
-41 -636 652 0
-637 652 0
-41 -637 653 0
-638 653 0
-41 -638 654 0
-639 654 0
-41 -639 655 0
-640 655 0
-41 -640 656 0
-641 656 0
-41 -641 657 0
-642 657 0
-41 -642 658 0
-643 658 0
-41 -643 659 0
-644 659 0
-41 -644 660 0
-645 660 0
-41 -645 661 0
-646 661 0
-41 -646 662 0
-647 662 0
-41 -647 663 0
-648 663 0
-41 -648 664 0
-649 664 0
-41 -649 665 0
-650 665 0
-41 -650 0
-42 666 0
-651 666 0
-42 -651 667 0
-652 667 0
-42 -652 668 0
-653 668 0
-42 -653 669 0
-654 669 0
-42 -654 670 0
-655 670 0
-42 -655 671 0
-656 671 0
-42 -656 672 0
-657 672 0
-42 -657 673 0
-658 673 0
-42 -658 674 0
-659 674 0
-42 -659 675 0
-660 675 0
-42 -660 676 0
-661 676 0
-42 -661 677 0
-662 677 0
-42 -662 678 0
-663 678 0
-42 -663 679 0
-664 679 0
-42 -664 680 0
-665 680 0
-42 -665 0
-43 681 0
-666 681 0
-43 -666 682 0
-667 682 0
-43 -667 683 0
-668 683 0
-43 -668 684 0
-669 684 0
-43 -669 685 0
-670 685 0
-43 -670 686 0
-671 686 0
-43 -671 687 0
-672 687 0
-43 -672 688 0
-673 688 0
-43 -673 689 0
-674 689 0
-43 -674 690 0
-675 690 0
-43 -675 691 0
-676 691 0
-43 -676 692 0
-677 692 0
-43 -677 693 0
-678 693 0
-43 -678 694 0
-679 694 0
-43 -679 695 0
-680 695 0
-43 -680 0
-44 696 0
-681 696 0
-44 -681 697 0
-682 697 0
-44 -682 698 0
-683 698 0
-44 -683 699 0
-684 699 0
-44 -684 700 0
-685 700 0
-44 -685 701 0
-686 701 0
-44 -686 702 0
-687 702 0
-44 -687 703 0
-688 703 0
-44 -688 704 0
-689 704 0
-44 -689 705 0
-690 705 0
-44 -690 706 0
-691 706 0
-44 -691 707 0
-692 707 0
-44 -692 708 0
-693 708 0
-44 -693 709 0
-694 709 0
-44 -694 710 0
-695 710 0
-44 -695 0
-45 711 0
-696 711 0
-45 -696 712 0
-697 712 0
-45 -697 713 0
-698 713 0
-45 -698 714 0
-699 714 0
-45 -699 715 0
-700 715 0
-45 -700 716 0
-701 716 0
-45 -701 717 0
-702 717 0
-45 -702 718 0
-703 718 0
-45 -703 719 0
-704 719 0
-45 -704 720 0
-705 720 0
-45 -705 721 0
-706 721 0
-45 -706 722 0
-707 722 0
-45 -707 723 0
-708 723 0
-45 -708 724 0
-709 724 0
-45 -709 725 0
-710 725 0
-45 -710 0
-46 726 0
-711 726 0
-46 -711 727 0
-712 727 0
-46 -712 728 0
-713 728 0
-46 -713 729 0
-714 729 0
-46 -714 730 0
-715 730 0
-46 -715 731 0
-716 731 0
-46 -716 732 0
-717 732 0
-46 -717 733 0
-718 733 0
-46 -718 734 0
-719 734 0
-46 -719 735 0
-720 735 0
-46 -720 736 0
-721 736 0
-46 -721 737 0
-722 737 0
-46 -722 738 0
-723 738 0
-46 -723 739 0
-724 739 0
-46 -724 740 0
-725 740 0
-46 -725 0
-47 741 0
-726 741 0
-47 -726 742 0
-727 742 0
-47 -727 743 0
-728 743 0
-47 -728 744 0
-729 744 0
-47 -729 745 0
-730 745 0
-47 -730 746 0
-731 746 0
-47 -731 747 0
-732 747 0
-47 -732 748 0
-733 748 0
-47 -733 749 0
-734 749 0
-47 -734 750 0
-735 750 0
-47 -735 751 0
-736 751 0
-47 -736 752 0
-737 752 0
-47 -737 753 0
-738 753 0
-47 -738 754 0
-739 754 0
-47 -739 755 0
-740 755 0
-47 -740 0
-48 756 0
-741 756 0
-48 -741 757 0
-742 757 0
-48 -742 758 0
-743 758 0
-48 -743 759 0
-744 759 0
-48 -744 760 0
-745 760 0
-48 -745 761 0
-746 761 0
-48 -746 762 0
-747 762 0
-48 -747 763 0
-748 763 0
-48 -748 764 0
-749 764 0
-48 -749 765 0
-750 765 0
-48 -750 766 0
-751 766 0
-48 -751 767 0
-752 767 0
-48 -752 768 0
-753 768 0
-48 -753 769 0
-754 769 0
-48 -754 770 0
-755 770 0
-48 -755 0
-49 771 0
-756 771 0
-49 -756 772 0
-757 772 0
-49 -757 773 0
-758 773 0
-49 -758 774 0
-759 774 0
-49 -759 775 0
-760 775 0
-49 -760 776 0
-761 776 0
-49 -761 777 0
-762 777 0
-49 -762 778 0
-763 778 0
-49 -763 779 0
-764 779 0
-49 -764 780 0
-765 780 0
-49 -765 781 0
-766 781 0
-49 -766 782 0
-767 782 0
-49 -767 783 0
-768 783 0
-49 -768 784 0
-769 784 0
-49 -769 785 0
-770 785 0
-49 -770 0
-50 -785 0
