c R3+R3 ds at-most-13: x(v)=v+1 for v=0..49; aux = Sinz sequential counter
p cnf 687 1360
1 2 31 33 0
1 2 34 35 0
3 4 31 34 0
3 4 33 36 0
5 6 32 37 0
5 6 38 39 0
7 8 32 38 0
7 8 37 40 0
9 10 33 35 0
9 10 37 39 0
11 12 34 36 0
11 12 38 40 0
13 14 35 39 0
13 14 36 40 0
15 16 41 43 0
15 16 44 45 0
17 18 41 44 0
17 18 43 46 0
19 20 42 47 0
19 20 48 49 0
21 22 42 48 0
21 22 47 50 0
23 24 43 45 0
23 24 47 49 0
25 26 44 46 0
25 26 48 50 0
27 28 45 49 0
27 28 46 50 0
29 30 31 32 0
29 30 41 42 0
1 3 29 31 0
5 7 29 32 0
1 4 9 33 0
2 3 11 34 0
2 9 13 35 0
4 11 14 36 0
5 8 10 37 0
6 7 12 38 0
6 10 13 39 0
8 12 14 40 0
15 17 30 41 0
19 21 30 42 0
15 18 23 43 0
16 17 25 44 0
16 23 27 45 0
18 25 28 46 0
19 22 24 47 0
20 21 26 48 0
20 24 27 49 0
22 26 28 50 0
-1 51 0
-52 0
-53 0
-54 0
-55 0
-56 0
-57 0
-58 0
-59 0
-60 0
-61 0
-62 0
-63 0
-2 64 0
-51 64 0
-2 -51 65 0
-52 65 0
-2 -52 66 0
-53 66 0
-2 -53 67 0
-54 67 0
-2 -54 68 0
-55 68 0
-2 -55 69 0
-56 69 0
-2 -56 70 0
-57 70 0
-2 -57 71 0
-58 71 0
-2 -58 72 0
-59 72 0
-2 -59 73 0
-60 73 0
-2 -60 74 0
-61 74 0
-2 -61 75 0
-62 75 0
-2 -62 76 0
-63 76 0
-2 -63 0
-3 77 0
-64 77 0
-3 -64 78 0
-65 78 0
-3 -65 79 0
-66 79 0
-3 -66 80 0
-67 80 0
-3 -67 81 0
-68 81 0
-3 -68 82 0
-69 82 0
-3 -69 83 0
-70 83 0
-3 -70 84 0
-71 84 0
-3 -71 85 0
-72 85 0
-3 -72 86 0
-73 86 0
-3 -73 87 0
-74 87 0
-3 -74 88 0
-75 88 0
-3 -75 89 0
-76 89 0
-3 -76 0
-4 90 0
-77 90 0
-4 -77 91 0
-78 91 0
-4 -78 92 0
-79 92 0
-4 -79 93 0
-80 93 0
-4 -80 94 0
-81 94 0
-4 -81 95 0
-82 95 0
-4 -82 96 0
-83 96 0
-4 -83 97 0
-84 97 0
-4 -84 98 0
-85 98 0
-4 -85 99 0
-86 99 0
-4 -86 100 0
-87 100 0
-4 -87 101 0
-88 101 0
-4 -88 102 0
-89 102 0
-4 -89 0
-5 103 0
-90 103 0
-5 -90 104 0
-91 104 0
-5 -91 105 0
-92 105 0
-5 -92 106 0
-93 106 0
-5 -93 107 0
-94 107 0
-5 -94 108 0
-95 108 0
-5 -95 109 0
-96 109 0
-5 -96 110 0
-97 110 0
-5 -97 111 0
-98 111 0
-5 -98 112 0
-99 112 0
-5 -99 113 0
-100 113 0
-5 -100 114 0
-101 114 0
-5 -101 115 0
-102 115 0
-5 -102 0
-6 116 0
-103 116 0
-6 -103 117 0
-104 117 0
-6 -104 118 0
-105 118 0
-6 -105 119 0
-106 119 0
-6 -106 120 0
-107 120 0
-6 -107 121 0
-108 121 0
-6 -108 122 0
-109 122 0
-6 -109 123 0
-110 123 0
-6 -110 124 0
-111 124 0
-6 -111 125 0
-112 125 0
-6 -112 126 0
-113 126 0
-6 -113 127 0
-114 127 0
-6 -114 128 0
-115 128 0
-6 -115 0
-7 129 0
-116 129 0
-7 -116 130 0
-117 130 0
-7 -117 131 0
-118 131 0
-7 -118 132 0
-119 132 0
-7 -119 133 0
-120 133 0
-7 -120 134 0
-121 134 0
-7 -121 135 0
-122 135 0
-7 -122 136 0
-123 136 0
-7 -123 137 0
-124 137 0
-7 -124 138 0
-125 138 0
-7 -125 139 0
-126 139 0
-7 -126 140 0
-127 140 0
-7 -127 141 0
-128 141 0
-7 -128 0
-8 142 0
-129 142 0
-8 -129 143 0
-130 143 0
-8 -130 144 0
-131 144 0
-8 -131 145 0
-132 145 0
-8 -132 146 0
-133 146 0
-8 -133 147 0
-134 147 0
-8 -134 148 0
-135 148 0
-8 -135 149 0
-136 149 0
-8 -136 150 0
-137 150 0
-8 -137 151 0
-138 151 0
-8 -138 152 0
-139 152 0
-8 -139 153 0
-140 153 0
-8 -140 154 0
-141 154 0
-8 -141 0
-9 155 0
-142 155 0
-9 -142 156 0
-143 156 0
-9 -143 157 0
-144 157 0
-9 -144 158 0
-145 158 0
-9 -145 159 0
-146 159 0
-9 -146 160 0
-147 160 0
-9 -147 161 0
-148 161 0
-9 -148 162 0
-149 162 0
-9 -149 163 0
-150 163 0
-9 -150 164 0
-151 164 0
-9 -151 165 0
-152 165 0
-9 -152 166 0
-153 166 0
-9 -153 167 0
-154 167 0
-9 -154 0
-10 168 0
-155 168 0
-10 -155 169 0
-156 169 0
-10 -156 170 0
-157 170 0
-10 -157 171 0
-158 171 0
-10 -158 172 0
-159 172 0
-10 -159 173 0
-160 173 0
-10 -160 174 0
-161 174 0
-10 -161 175 0
-162 175 0
-10 -162 176 0
-163 176 0
-10 -163 177 0
-164 177 0
-10 -164 178 0
-165 178 0
-10 -165 179 0
-166 179 0
-10 -166 180 0
-167 180 0
-10 -167 0
-11 181 0
-168 181 0
-11 -168 182 0
-169 182 0
-11 -169 183 0
-170 183 0
-11 -170 184 0
-171 184 0
-11 -171 185 0
-172 185 0
-11 -172 186 0
-173 186 0
-11 -173 187 0
-174 187 0
-11 -174 188 0
-175 188 0
-11 -175 189 0
-176 189 0
-11 -176 190 0
-177 190 0
-11 -177 191 0
-178 191 0
-11 -178 192 0
-179 192 0
-11 -179 193 0
-180 193 0
-11 -180 0
-12 194 0
-181 194 0
-12 -181 195 0
-182 195 0
-12 -182 196 0
-183 196 0
-12 -183 197 0
-184 197 0
-12 -184 198 0
-185 198 0
-12 -185 199 0
-186 199 0
-12 -186 200 0
-187 200 0
-12 -187 201 0
-188 201 0
-12 -188 202 0
-189 202 0
-12 -189 203 0
-190 203 0
-12 -190 204 0
-191 204 0
-12 -191 205 0
-192 205 0
-12 -192 206 0
-193 206 0
-12 -193 0
-13 207 0
-194 207 0
-13 -194 208 0
-195 208 0
-13 -195 209 0
-196 209 0
-13 -196 210 0
-197 210 0
-13 -197 211 0
-198 211 0
-13 -198 212 0
-199 212 0
-13 -199 213 0
-200 213 0
-13 -200 214 0
-201 214 0
-13 -201 215 0
-202 215 0
-13 -202 216 0
-203 216 0
-13 -203 217 0
-204 217 0
-13 -204 218 0
-205 218 0
-13 -205 219 0
-206 219 0
-13 -206 0
-14 220 0
-207 220 0
-14 -207 221 0
-208 221 0
-14 -208 222 0
-209 222 0
-14 -209 223 0
-210 223 0
-14 -210 224 0
-211 224 0
-14 -211 225 0
-212 225 0
-14 -212 226 0
-213 226 0
-14 -213 227 0
-214 227 0
-14 -214 228 0
-215 228 0
-14 -215 229 0
-216 229 0
-14 -216 230 0
-217 230 0
-14 -217 231 0
-218 231 0
-14 -218 232 0
-219 232 0
-14 -219 0
-15 233 0
-220 233 0
-15 -220 234 0
-221 234 0
-15 -221 235 0
-222 235 0
-15 -222 236 0
-223 236 0
-15 -223 237 0
-224 237 0
-15 -224 238 0
-225 238 0
-15 -225 239 0
-226 239 0
-15 -226 240 0
-227 240 0
-15 -227 241 0
-228 241 0
-15 -228 242 0
-229 242 0
-15 -229 243 0
-230 243 0
-15 -230 244 0
-231 244 0
-15 -231 245 0
-232 245 0
-15 -232 0
-16 246 0
-233 246 0
-16 -233 247 0
-234 247 0
-16 -234 248 0
-235 248 0
-16 -235 249 0
-236 249 0
-16 -236 250 0
-237 250 0
-16 -237 251 0
-238 251 0
-16 -238 252 0
-239 252 0
-16 -239 253 0
-240 253 0
-16 -240 254 0
-241 254 0
-16 -241 255 0
-242 255 0
-16 -242 256 0
-243 256 0
-16 -243 257 0
-244 257 0
-16 -244 258 0
-245 258 0
-16 -245 0
-17 259 0
-246 259 0
-17 -246 260 0
-247 260 0
-17 -247 261 0
-248 261 0
-17 -248 262 0
-249 262 0
-17 -249 263 0
-250 263 0
-17 -250 264 0
-251 264 0
-17 -251 265 0
-252 265 0
-17 -252 266 0
-253 266 0
-17 -253 267 0
-254 267 0
-17 -254 268 0
-255 268 0
-17 -255 269 0
-256 269 0
-17 -256 270 0
-257 270 0
-17 -257 271 0
-258 271 0
-17 -258 0
-18 272 0
-259 272 0
-18 -259 273 0
-260 273 0
-18 -260 274 0
-261 274 0
-18 -261 275 0
-262 275 0
-18 -262 276 0
-263 276 0
-18 -263 277 0
-264 277 0
-18 -264 278 0
-265 278 0
-18 -265 279 0
-266 279 0
-18 -266 280 0
-267 280 0
-18 -267 281 0
-268 281 0
-18 -268 282 0
-269 282 0
-18 -269 283 0
-270 283 0
-18 -270 284 0
-271 284 0
-18 -271 0
-19 285 0
-272 285 0
-19 -272 286 0
-273 286 0
-19 -273 287 0
-274 287 0
-19 -274 288 0
-275 288 0
-19 -275 289 0
-276 289 0
-19 -276 290 0
-277 290 0
-19 -277 291 0
-278 291 0
-19 -278 292 0
-279 292 0
-19 -279 293 0
-280 293 0
-19 -280 294 0
-281 294 0
-19 -281 295 0
-282 295 0
-19 -282 296 0
-283 296 0
-19 -283 297 0
-284 297 0
-19 -284 0
-20 298 0
-285 298 0
-20 -285 299 0
-286 299 0
-20 -286 300 0
-287 300 0
-20 -287 301 0
-288 301 0
-20 -288 302 0
-289 302 0
-20 -289 303 0
-290 303 0
-20 -290 304 0
-291 304 0
-20 -291 305 0
-292 305 0
-20 -292 306 0
-293 306 0
-20 -293 307 0
-294 307 0
-20 -294 308 0
-295 308 0
-20 -295 309 0
-296 309 0
-20 -296 310 0
-297 310 0
-20 -297 0
-21 311 0
-298 311 0
-21 -298 312 0
-299 312 0
-21 -299 313 0
-300 313 0
-21 -300 314 0
-301 314 0
-21 -301 315 0
-302 315 0
-21 -302 316 0
-303 316 0
-21 -303 317 0
-304 317 0
-21 -304 318 0
-305 318 0
-21 -305 319 0
-306 319 0
-21 -306 320 0
-307 320 0
-21 -307 321 0
-308 321 0
-21 -308 322 0
-309 322 0
-21 -309 323 0
-310 323 0
-21 -310 0
-22 324 0
-311 324 0
-22 -311 325 0
-312 325 0
-22 -312 326 0
-313 326 0
-22 -313 327 0
-314 327 0
-22 -314 328 0
-315 328 0
-22 -315 329 0
-316 329 0
-22 -316 330 0
-317 330 0
-22 -317 331 0
-318 331 0
-22 -318 332 0
-319 332 0
-22 -319 333 0
-320 333 0
-22 -320 334 0
-321 334 0
-22 -321 335 0
-322 335 0
-22 -322 336 0
-323 336 0
-22 -323 0
-23 337 0
-324 337 0
-23 -324 338 0
-325 338 0
-23 -325 339 0
-326 339 0
-23 -326 340 0
-327 340 0
-23 -327 341 0
-328 341 0
-23 -328 342 0
-329 342 0
-23 -329 343 0
-330 343 0
-23 -330 344 0
-331 344 0
-23 -331 345 0
-332 345 0
-23 -332 346 0
-333 346 0
-23 -333 347 0
-334 347 0
-23 -334 348 0
-335 348 0
-23 -335 349 0
-336 349 0
-23 -336 0
-24 350 0
-337 350 0
-24 -337 351 0
-338 351 0
-24 -338 352 0
-339 352 0
-24 -339 353 0
-340 353 0
-24 -340 354 0
-341 354 0
-24 -341 355 0
-342 355 0
-24 -342 356 0
-343 356 0
-24 -343 357 0
-344 357 0
-24 -344 358 0
-345 358 0
-24 -345 359 0
-346 359 0
-24 -346 360 0
-347 360 0
-24 -347 361 0
-348 361 0
-24 -348 362 0
-349 362 0
-24 -349 0
-25 363 0
-350 363 0
-25 -350 364 0
-351 364 0
-25 -351 365 0
-352 365 0
-25 -352 366 0
-353 366 0
-25 -353 367 0
-354 367 0
-25 -354 368 0
-355 368 0
-25 -355 369 0
-356 369 0
-25 -356 370 0
-357 370 0
-25 -357 371 0
-358 371 0
-25 -358 372 0
-359 372 0
-25 -359 373 0
-360 373 0
-25 -360 374 0
-361 374 0
-25 -361 375 0
-362 375 0
-25 -362 0
-26 376 0
-363 376 0
-26 -363 377 0
-364 377 0
-26 -364 378 0
-365 378 0
-26 -365 379 0
-366 379 0
-26 -366 380 0
-367 380 0
-26 -367 381 0
-368 381 0
-26 -368 382 0
-369 382 0
-26 -369 383 0
-370 383 0
-26 -370 384 0
-371 384 0
-26 -371 385 0
-372 385 0
-26 -372 386 0
-373 386 0
-26 -373 387 0
-374 387 0
-26 -374 388 0
-375 388 0
-26 -375 0
-27 389 0
-376 389 0
-27 -376 390 0
-377 390 0
-27 -377 391 0
-378 391 0
-27 -378 392 0
-379 392 0
-27 -379 393 0
-380 393 0
-27 -380 394 0
-381 394 0
-27 -381 395 0
-382 395 0
-27 -382 396 0
-383 396 0
-27 -383 397 0
-384 397 0
-27 -384 398 0
-385 398 0
-27 -385 399 0
-386 399 0
-27 -386 400 0
-387 400 0
-27 -387 401 0
-388 401 0
-27 -388 0
-28 402 0
-389 402 0
-28 -389 403 0
-390 403 0
-28 -390 404 0
-391 404 0
-28 -391 405 0
-392 405 0
-28 -392 406 0
-393 406 0
-28 -393 407 0
-394 407 0
-28 -394 408 0
-395 408 0
-28 -395 409 0
-396 409 0
-28 -396 410 0
-397 410 0
-28 -397 411 0
-398 411 0
-28 -398 412 0
-399 412 0
-28 -399 413 0
-400 413 0
-28 -400 414 0
-401 414 0
-28 -401 0
-29 415 0
-402 415 0
-29 -402 416 0
-403 416 0
-29 -403 417 0
-404 417 0
-29 -404 418 0
-405 418 0
-29 -405 419 0
-406 419 0
-29 -406 420 0
-407 420 0
-29 -407 421 0
-408 421 0
-29 -408 422 0
-409 422 0
-29 -409 423 0
-410 423 0
-29 -410 424 0
-411 424 0
-29 -411 425 0
-412 425 0
-29 -412 426 0
-413 426 0
-29 -413 427 0
-414 427 0
-29 -414 0
-30 428 0
-415 428 0
-30 -415 429 0
-416 429 0
-30 -416 430 0
-417 430 0
-30 -417 431 0
-418 431 0
-30 -418 432 0
-419 432 0
-30 -419 433 0
-420 433 0
-30 -420 434 0
-421 434 0
-30 -421 435 0
-422 435 0
-30 -422 436 0
-423 436 0
-30 -423 437 0
-424 437 0
-30 -424 438 0
-425 438 0
-30 -425 439 0
-426 439 0
-30 -426 440 0
-427 440 0
-30 -427 0
-31 441 0
-428 441 0
-31 -428 442 0
-429 442 0
-31 -429 443 0
-430 443 0
-31 -430 444 0
-431 444 0
-31 -431 445 0
-432 445 0
-31 -432 446 0
-433 446 0
-31 -433 447 0
-434 447 0
-31 -434 448 0
-435 448 0
-31 -435 449 0
-436 449 0
-31 -436 450 0
-437 450 0
-31 -437 451 0
-438 451 0
-31 -438 452 0
-439 452 0
-31 -439 453 0
-440 453 0
-31 -440 0
-32 454 0
-441 454 0
-32 -441 455 0
-442 455 0
-32 -442 456 0
-443 456 0
-32 -443 457 0
-444 457 0
-32 -444 458 0
-445 458 0
-32 -445 459 0
-446 459 0
-32 -446 460 0
-447 460 0
-32 -447 461 0
-448 461 0
-32 -448 462 0
-449 462 0
-32 -449 463 0
-450 463 0
-32 -450 464 0
-451 464 0
-32 -451 465 0
-452 465 0
-32 -452 466 0
-453 466 0
-32 -453 0
-33 467 0
-454 467 0
-33 -454 468 0
-455 468 0
-33 -455 469 0
-456 469 0
-33 -456 470 0
-457 470 0
-33 -457 471 0
-458 471 0
-33 -458 472 0
-459 472 0
-33 -459 473 0
-460 473 0
-33 -460 474 0
-461 474 0
-33 -461 475 0
-462 475 0
-33 -462 476 0
-463 476 0
-33 -463 477 0
-464 477 0
-33 -464 478 0
-465 478 0
-33 -465 479 0
-466 479 0
-33 -466 0
-34 480 0
-467 480 0
-34 -467 481 0
-468 481 0
-34 -468 482 0
-469 482 0
-34 -469 483 0
-470 483 0
-34 -470 484 0
-471 484 0
-34 -471 485 0
-472 485 0
-34 -472 486 0
-473 486 0
-34 -473 487 0
-474 487 0
-34 -474 488 0
-475 488 0
-34 -475 489 0
-476 489 0
-34 -476 490 0
-477 490 0
-34 -477 491 0
-478 491 0
-34 -478 492 0
-479 492 0
-34 -479 0
-35 493 0
-480 493 0
-35 -480 494 0
-481 494 0
-35 -481 495 0
-482 495 0
-35 -482 496 0
-483 496 0
-35 -483 497 0
-484 497 0
-35 -484 498 0
-485 498 0
-35 -485 499 0
-486 499 0
-35 -486 500 0
-487 500 0
-35 -487 501 0
-488 501 0
-35 -488 502 0
-489 502 0
-35 -489 503 0
-490 503 0
-35 -490 504 0
-491 504 0
-35 -491 505 0
-492 505 0
-35 -492 0
-36 506 0
-493 506 0
-36 -493 507 0
-494 507 0
-36 -494 508 0
-495 508 0
-36 -495 509 0
-496 509 0
-36 -496 510 0
-497 510 0
-36 -497 511 0
-498 511 0
-36 -498 512 0
-499 512 0
-36 -499 513 0
-500 513 0
-36 -500 514 0
-501 514 0
-36 -501 515 0
-502 515 0
-36 -502 516 0
-503 516 0
-36 -503 517 0
-504 517 0
-36 -504 518 0
-505 518 0
-36 -505 0
-37 519 0
-506 519 0
-37 -506 520 0
-507 520 0
-37 -507 521 0
-508 521 0
-37 -508 522 0
-509 522 0
-37 -509 523 0
-510 523 0
-37 -510 524 0
-511 524 0
-37 -511 525 0
-512 525 0
-37 -512 526 0
-513 526 0
-37 -513 527 0
-514 527 0
-37 -514 528 0
-515 528 0
-37 -515 529 0
-516 529 0
-37 -516 530 0
-517 530 0
-37 -517 531 0
-518 531 0
-37 -518 0
-38 532 0
-519 532 0
-38 -519 533 0
-520 533 0
-38 -520 534 0
-521 534 0
-38 -521 535 0
-522 535 0
-38 -522 536 0
-523 536 0
-38 -523 537 0
-524 537 0
-38 -524 538 0
-525 538 0
-38 -525 539 0
-526 539 0
-38 -526 540 0
-527 540 0
-38 -527 541 0
-528 541 0
-38 -528 542 0
-529 542 0
-38 -529 543 0
-530 543 0
-38 -530 544 0
-531 544 0
-38 -531 0
-39 545 0
-532 545 0
-39 -532 546 0
-533 546 0
-39 -533 547 0
-534 547 0
-39 -534 548 0
-535 548 0
-39 -535 549 0
-536 549 0
-39 -536 550 0
-537 550 0
-39 -537 551 0
-538 551 0
-39 -538 552 0
-539 552 0
-39 -539 553 0
-540 553 0
-39 -540 554 0
-541 554 0
-39 -541 555 0
-542 555 0
-39 -542 556 0
-543 556 0
-39 -543 557 0
-544 557 0
-39 -544 0
-40 558 0
-545 558 0
-40 -545 559 0
-546 559 0
-40 -546 560 0
-547 560 0
-40 -547 561 0
-548 561 0
-40 -548 562 0
-549 562 0
-40 -549 563 0
-550 563 0
-40 -550 564 0
-551 564 0
-40 -551 565 0
-552 565 0
-40 -552 566 0
-553 566 0
-40 -553 567 0
-554 567 0
-40 -554 568 0
-555 568 0
-40 -555 569 0
-556 569 0
-40 -556 570 0
-557 570 0
-40 -557 0
-41 571 0
-558 571 0
-41 -558 572 0
-559 572 0
-41 -559 573 0
-560 573 0
-41 -560 574 0
-561 574 0
-41 -561 575 0
-562 575 0
-41 -562 576 0
-563 576 0
-41 -563 577 0
-564 577 0
-41 -564 578 0
-565 578 0
-41 -565 579 0
-566 579 0
-41 -566 580 0
-567 580 0
-41 -567 581 0
-568 581 0
-41 -568 582 0
-569 582 0
-41 -569 583 0
-570 583 0
-41 -570 0
-42 584 0
-571 584 0
-42 -571 585 0
-572 585 0
-42 -572 586 0
-573 586 0
-42 -573 587 0
-574 587 0
-42 -574 588 0
-575 588 0
-42 -575 589 0
-576 589 0
-42 -576 590 0
-577 590 0
-42 -577 591 0
-578 591 0
-42 -578 592 0
-579 592 0
-42 -579 593 0
-580 593 0
-42 -580 594 0
-581 594 0
-42 -581 595 0
-582 595 0
-42 -582 596 0
-583 596 0
-42 -583 0
-43 597 0
-584 597 0
-43 -584 598 0
-585 598 0
-43 -585 599 0
-586 599 0
-43 -586 600 0
-587 600 0
-43 -587 601 0
-588 601 0
-43 -588 602 0
-589 602 0
-43 -589 603 0
-590 603 0
-43 -590 604 0
-591 604 0
-43 -591 605 0
-592 605 0
-43 -592 606 0
-593 606 0
-43 -593 607 0
-594 607 0
-43 -594 608 0
-595 608 0
-43 -595 609 0
-596 609 0
-43 -596 0
-44 610 0
-597 610 0
-44 -597 611 0
-598 611 0
-44 -598 612 0
-599 612 0
-44 -599 613 0
-600 613 0
-44 -600 614 0
-601 614 0
-44 -601 615 0
-602 615 0
-44 -602 616 0
-603 616 0
-44 -603 617 0
-604 617 0
-44 -604 618 0
-605 618 0
-44 -605 619 0
-606 619 0
-44 -606 620 0
-607 620 0
-44 -607 621 0
-608 621 0
-44 -608 622 0
-609 622 0
-44 -609 0
-45 623 0
-610 623 0
-45 -610 624 0
-611 624 0
-45 -611 625 0
-612 625 0
-45 -612 626 0
-613 626 0
-45 -613 627 0
-614 627 0
-45 -614 628 0
-615 628 0
-45 -615 629 0
-616 629 0
-45 -616 630 0
-617 630 0
-45 -617 631 0
-618 631 0
-45 -618 632 0
-619 632 0
-45 -619 633 0
-620 633 0
-45 -620 634 0
-621 634 0
-45 -621 635 0
-622 635 0
-45 -622 0
-46 636 0
-623 636 0
-46 -623 637 0
-624 637 0
-46 -624 638 0
-625 638 0
-46 -625 639 0
-626 639 0
-46 -626 640 0
-627 640 0
-46 -627 641 0
-628 641 0
-46 -628 642 0
-629 642 0
-46 -629 643 0
-630 643 0
-46 -630 644 0
-631 644 0
-46 -631 645 0
-632 645 0
-46 -632 646 0
-633 646 0
-46 -633 647 0
-634 647 0
-46 -634 648 0
-635 648 0
-46 -635 0
-47 649 0
-636 649 0
-47 -636 650 0
-637 650 0
-47 -637 651 0
-638 651 0
-47 -638 652 0
-639 652 0
-47 -639 653 0
-640 653 0
-47 -640 654 0
-641 654 0
-47 -641 655 0
-642 655 0
-47 -642 656 0
-643 656 0
-47 -643 657 0
-644 657 0
-47 -644 658 0
-645 658 0
-47 -645 659 0
-646 659 0
-47 -646 660 0
-647 660 0
-47 -647 661 0
-648 661 0
-47 -648 0
-48 662 0
-649 662 0
-48 -649 663 0
-650 663 0
-48 -650 664 0
-651 664 0
-48 -651 665 0
-652 665 0
-48 -652 666 0
-653 666 0
-48 -653 667 0
-654 667 0
-48 -654 668 0
-655 668 0
-48 -655 669 0
-656 669 0
-48 -656 670 0
-657 670 0
-48 -657 671 0
-658 671 0
-48 -658 672 0
-659 672 0
-48 -659 673 0
-660 673 0
-48 -660 674 0
-661 674 0
-48 -661 0
-49 675 0
-662 675 0
-49 -662 676 0
-663 676 0
-49 -663 677 0
-664 677 0
-49 -664 678 0
-665 678 0
-49 -665 679 0
-666 679 0
-49 -666 680 0
-667 680 0
-49 -667 681 0
-668 681 0
-49 -668 682 0
-669 682 0
-49 -669 683 0
-670 683 0
-49 -670 684 0
-671 684 0
-49 -671 685 0
-672 685 0
-49 -672 686 0
-673 686 0
-49 -673 687 0
-674 687 0
-49 -674 0
-50 -687 0
