c R3+R7 ds at-most-14: x(v)=v+1 for v=0..49; aux = Sinz sequential counter
p cnf 736 1457
1 2 31 33 0
1 2 34 35 0
3 4 31 34 0
3 4 33 36 0
5 6 32 37 0
5 6 38 39 0
7 8 32 38 0
7 8 37 40 0
9 10 33 35 0
9 10 37 39 0
11 12 34 36 0
11 12 38 40 0
13 14 35 39 0
13 14 36 40 0
15 16 41 44 0
15 16 42 43 0
17 18 41 43 0
17 18 45 46 0
19 20 42 44 0
19 20 47 48 0
21 22 43 45 0
21 22 47 49 0
23 24 44 48 0
23 24 46 50 0
25 26 45 49 0
25 26 48 50 0
27 28 46 47 0
27 28 49 50 0
29 30 31 32 0
29 30 41 42 0
1 3 29 31 0
5 7 29 32 0
1 4 9 33 0
2 3 11 34 0
2 9 13 35 0
4 11 14 36 0
5 8 10 37 0
6 7 12 38 0
6 10 13 39 0
8 12 14 40 0
15 17 30 41 0
16 19 30 42 0
16 17 21 43 0
15 19 23 44 0
18 21 25 45 0
18 24 27 46 0
20 22 27 47 0
20 23 26 48 0
22 25 28 49 0
24 26 28 50 0
-1 51 0
-52 0
-53 0
-54 0
-55 0
-56 0
-57 0
-58 0
-59 0
-60 0
-61 0
-62 0
-63 0
-64 0
-2 65 0
-51 65 0
-2 -51 66 0
-52 66 0
-2 -52 67 0
-53 67 0
-2 -53 68 0
-54 68 0
-2 -54 69 0
-55 69 0
-2 -55 70 0
-56 70 0
-2 -56 71 0
-57 71 0
-2 -57 72 0
-58 72 0
-2 -58 73 0
-59 73 0
-2 -59 74 0
-60 74 0
-2 -60 75 0
-61 75 0
-2 -61 76 0
-62 76 0
-2 -62 77 0
-63 77 0
-2 -63 78 0
-64 78 0
-2 -64 0
-3 79 0
-65 79 0
-3 -65 80 0
-66 80 0
-3 -66 81 0
-67 81 0
-3 -67 82 0
-68 82 0
-3 -68 83 0
-69 83 0
-3 -69 84 0
-70 84 0
-3 -70 85 0
-71 85 0
-3 -71 86 0
-72 86 0
-3 -72 87 0
-73 87 0
-3 -73 88 0
-74 88 0
-3 -74 89 0
-75 89 0
-3 -75 90 0
-76 90 0
-3 -76 91 0
-77 91 0
-3 -77 92 0
-78 92 0
-3 -78 0
-4 93 0
-79 93 0
-4 -79 94 0
-80 94 0
-4 -80 95 0
-81 95 0
-4 -81 96 0
-82 96 0
-4 -82 97 0
-83 97 0
-4 -83 98 0
-84 98 0
-4 -84 99 0
-85 99 0
-4 -85 100 0
-86 100 0
-4 -86 101 0
-87 101 0
-4 -87 102 0
-88 102 0
-4 -88 103 0
-89 103 0
-4 -89 104 0
-90 104 0
-4 -90 105 0
-91 105 0
-4 -91 106 0
-92 106 0
-4 -92 0
-5 107 0
-93 107 0
-5 -93 108 0
-94 108 0
-5 -94 109 0
-95 109 0
-5 -95 110 0
-96 110 0
-5 -96 111 0
-97 111 0
-5 -97 112 0
-98 112 0
-5 -98 113 0
-99 113 0
-5 -99 114 0
-100 114 0
-5 -100 115 0
-101 115 0
-5 -101 116 0
-102 116 0
-5 -102 117 0
-103 117 0
-5 -103 118 0
-104 118 0
-5 -104 119 0
-105 119 0
-5 -105 120 0
-106 120 0
-5 -106 0
-6 121 0
-107 121 0
-6 -107 122 0
-108 122 0
-6 -108 123 0
-109 123 0
-6 -109 124 0
-110 124 0
-6 -110 125 0
-111 125 0
-6 -111 126 0
-112 126 0
-6 -112 127 0
-113 127 0
-6 -113 128 0
-114 128 0
-6 -114 129 0
-115 129 0
-6 -115 130 0
-116 130 0
-6 -116 131 0
-117 131 0
-6 -117 132 0
-118 132 0
-6 -118 133 0
-119 133 0
-6 -119 134 0
-120 134 0
-6 -120 0
-7 135 0
-121 135 0
-7 -121 136 0
-122 136 0
-7 -122 137 0
-123 137 0
-7 -123 138 0
-124 138 0
-7 -124 139 0
-125 139 0
-7 -125 140 0
-126 140 0
-7 -126 141 0
-127 141 0
-7 -127 142 0
-128 142 0
-7 -128 143 0
-129 143 0
-7 -129 144 0
-130 144 0
-7 -130 145 0
-131 145 0
-7 -131 146 0
-132 146 0
-7 -132 147 0
-133 147 0
-7 -133 148 0
-134 148 0
-7 -134 0
-8 149 0
-135 149 0
-8 -135 150 0
-136 150 0
-8 -136 151 0
-137 151 0
-8 -137 152 0
-138 152 0
-8 -138 153 0
-139 153 0
-8 -139 154 0
-140 154 0
-8 -140 155 0
-141 155 0
-8 -141 156 0
-142 156 0
-8 -142 157 0
-143 157 0
-8 -143 158 0
-144 158 0
-8 -144 159 0
-145 159 0
-8 -145 160 0
-146 160 0
-8 -146 161 0
-147 161 0
-8 -147 162 0
-148 162 0
-8 -148 0
-9 163 0
-149 163 0
-9 -149 164 0
-150 164 0
-9 -150 165 0
-151 165 0
-9 -151 166 0
-152 166 0
-9 -152 167 0
-153 167 0
-9 -153 168 0
-154 168 0
-9 -154 169 0
-155 169 0
-9 -155 170 0
-156 170 0
-9 -156 171 0
-157 171 0
-9 -157 172 0
-158 172 0
-9 -158 173 0
-159 173 0
-9 -159 174 0
-160 174 0
-9 -160 175 0
-161 175 0
-9 -161 176 0
-162 176 0
-9 -162 0
-10 177 0
-163 177 0
-10 -163 178 0
-164 178 0
-10 -164 179 0
-165 179 0
-10 -165 180 0
-166 180 0
-10 -166 181 0
-167 181 0
-10 -167 182 0
-168 182 0
-10 -168 183 0
-169 183 0
-10 -169 184 0
-170 184 0
-10 -170 185 0
-171 185 0
-10 -171 186 0
-172 186 0
-10 -172 187 0
-173 187 0
-10 -173 188 0
-174 188 0
-10 -174 189 0
-175 189 0
-10 -175 190 0
-176 190 0
-10 -176 0
-11 191 0
-177 191 0
-11 -177 192 0
-178 192 0
-11 -178 193 0
-179 193 0
-11 -179 194 0
-180 194 0
-11 -180 195 0
-181 195 0
-11 -181 196 0
-182 196 0
-11 -182 197 0
-183 197 0
-11 -183 198 0
-184 198 0
-11 -184 199 0
-185 199 0
-11 -185 200 0
-186 200 0
-11 -186 201 0
-187 201 0
-11 -187 202 0
-188 202 0
-11 -188 203 0
-189 203 0
-11 -189 204 0
-190 204 0
-11 -190 0
-12 205 0
-191 205 0
-12 -191 206 0
-192 206 0
-12 -192 207 0
-193 207 0
-12 -193 208 0
-194 208 0
-12 -194 209 0
-195 209 0
-12 -195 210 0
-196 210 0
-12 -196 211 0
-197 211 0
-12 -197 212 0
-198 212 0
-12 -198 213 0
-199 213 0
-12 -199 214 0
-200 214 0
-12 -200 215 0
-201 215 0
-12 -201 216 0
-202 216 0
-12 -202 217 0
-203 217 0
-12 -203 218 0
-204 218 0
-12 -204 0
-13 219 0
-205 219 0
-13 -205 220 0
-206 220 0
-13 -206 221 0
-207 221 0
-13 -207 222 0
-208 222 0
-13 -208 223 0
-209 223 0
-13 -209 224 0
-210 224 0
-13 -210 225 0
-211 225 0
-13 -211 226 0
-212 226 0
-13 -212 227 0
-213 227 0
-13 -213 228 0
-214 228 0
-13 -214 229 0
-215 229 0
-13 -215 230 0
-216 230 0
-13 -216 231 0
-217 231 0
-13 -217 232 0
-218 232 0
-13 -218 0
-14 233 0
-219 233 0
-14 -219 234 0
-220 234 0
-14 -220 235 0
-221 235 0
-14 -221 236 0
-222 236 0
-14 -222 237 0
-223 237 0
-14 -223 238 0
-224 238 0
-14 -224 239 0
-225 239 0
-14 -225 240 0
-226 240 0
-14 -226 241 0
-227 241 0
-14 -227 242 0
-228 242 0
-14 -228 243 0
-229 243 0
-14 -229 244 0
-230 244 0
-14 -230 245 0
-231 245 0
-14 -231 246 0
-232 246 0
-14 -232 0
-15 247 0
-233 247 0
-15 -233 248 0
-234 248 0
-15 -234 249 0
-235 249 0
-15 -235 250 0
-236 250 0
-15 -236 251 0
-237 251 0
-15 -237 252 0
-238 252 0
-15 -238 253 0
-239 253 0
-15 -239 254 0
-240 254 0
-15 -240 255 0
-241 255 0
-15 -241 256 0
-242 256 0
-15 -242 257 0
-243 257 0
-15 -243 258 0
-244 258 0
-15 -244 259 0
-245 259 0
-15 -245 260 0
-246 260 0
-15 -246 0
-16 261 0
-247 261 0
-16 -247 262 0
-248 262 0
-16 -248 263 0
-249 263 0
-16 -249 264 0
-250 264 0
-16 -250 265 0
-251 265 0
-16 -251 266 0
-252 266 0
-16 -252 267 0
-253 267 0
-16 -253 268 0
-254 268 0
-16 -254 269 0
-255 269 0
-16 -255 270 0
-256 270 0
-16 -256 271 0
-257 271 0
-16 -257 272 0
-258 272 0
-16 -258 273 0
-259 273 0
-16 -259 274 0
-260 274 0
-16 -260 0
-17 275 0
-261 275 0
-17 -261 276 0
-262 276 0
-17 -262 277 0
-263 277 0
-17 -263 278 0
-264 278 0
-17 -264 279 0
-265 279 0
-17 -265 280 0
-266 280 0
-17 -266 281 0
-267 281 0
-17 -267 282 0
-268 282 0
-17 -268 283 0
-269 283 0
-17 -269 284 0
-270 284 0
-17 -270 285 0
-271 285 0
-17 -271 286 0
-272 286 0
-17 -272 287 0
-273 287 0
-17 -273 288 0
-274 288 0
-17 -274 0
-18 289 0
-275 289 0
-18 -275 290 0
-276 290 0
-18 -276 291 0
-277 291 0
-18 -277 292 0
-278 292 0
-18 -278 293 0
-279 293 0
-18 -279 294 0
-280 294 0
-18 -280 295 0
-281 295 0
-18 -281 296 0
-282 296 0
-18 -282 297 0
-283 297 0
-18 -283 298 0
-284 298 0
-18 -284 299 0
-285 299 0
-18 -285 300 0
-286 300 0
-18 -286 301 0
-287 301 0
-18 -287 302 0
-288 302 0
-18 -288 0
-19 303 0
-289 303 0
-19 -289 304 0
-290 304 0
-19 -290 305 0
-291 305 0
-19 -291 306 0
-292 306 0
-19 -292 307 0
-293 307 0
-19 -293 308 0
-294 308 0
-19 -294 309 0
-295 309 0
-19 -295 310 0
-296 310 0
-19 -296 311 0
-297 311 0
-19 -297 312 0
-298 312 0
-19 -298 313 0
-299 313 0
-19 -299 314 0
-300 314 0
-19 -300 315 0
-301 315 0
-19 -301 316 0
-302 316 0
-19 -302 0
-20 317 0
-303 317 0
-20 -303 318 0
-304 318 0
-20 -304 319 0
-305 319 0
-20 -305 320 0
-306 320 0
-20 -306 321 0
-307 321 0
-20 -307 322 0
-308 322 0
-20 -308 323 0
-309 323 0
-20 -309 324 0
-310 324 0
-20 -310 325 0
-311 325 0
-20 -311 326 0
-312 326 0
-20 -312 327 0
-313 327 0
-20 -313 328 0
-314 328 0
-20 -314 329 0
-315 329 0
-20 -315 330 0
-316 330 0
-20 -316 0
-21 331 0
-317 331 0
-21 -317 332 0
-318 332 0
-21 -318 333 0
-319 333 0
-21 -319 334 0
-320 334 0
-21 -320 335 0
-321 335 0
-21 -321 336 0
-322 336 0
-21 -322 337 0
-323 337 0
-21 -323 338 0
-324 338 0
-21 -324 339 0
-325 339 0
-21 -325 340 0
-326 340 0
-21 -326 341 0
-327 341 0
-21 -327 342 0
-328 342 0
-21 -328 343 0
-329 343 0
-21 -329 344 0
-330 344 0
-21 -330 0
-22 345 0
-331 345 0
-22 -331 346 0
-332 346 0
-22 -332 347 0
-333 347 0
-22 -333 348 0
-334 348 0
-22 -334 349 0
-335 349 0
-22 -335 350 0
-336 350 0
-22 -336 351 0
-337 351 0
-22 -337 352 0
-338 352 0
-22 -338 353 0
-339 353 0
-22 -339 354 0
-340 354 0
-22 -340 355 0
-341 355 0
-22 -341 356 0
-342 356 0
-22 -342 357 0
-343 357 0
-22 -343 358 0
-344 358 0
-22 -344 0
-23 359 0
-345 359 0
-23 -345 360 0
-346 360 0
-23 -346 361 0
-347 361 0
-23 -347 362 0
-348 362 0
-23 -348 363 0
-349 363 0
-23 -349 364 0
-350 364 0
-23 -350 365 0
-351 365 0
-23 -351 366 0
-352 366 0
-23 -352 367 0
-353 367 0
-23 -353 368 0
-354 368 0
-23 -354 369 0
-355 369 0
-23 -355 370 0
-356 370 0
-23 -356 371 0
-357 371 0
-23 -357 372 0
-358 372 0
-23 -358 0
-24 373 0
-359 373 0
-24 -359 374 0
-360 374 0
-24 -360 375 0
-361 375 0
-24 -361 376 0
-362 376 0
-24 -362 377 0
-363 377 0
-24 -363 378 0
-364 378 0
-24 -364 379 0
-365 379 0
-24 -365 380 0
-366 380 0
-24 -366 381 0
-367 381 0
-24 -367 382 0
-368 382 0
-24 -368 383 0
-369 383 0
-24 -369 384 0
-370 384 0
-24 -370 385 0
-371 385 0
-24 -371 386 0
-372 386 0
-24 -372 0
-25 387 0
-373 387 0
-25 -373 388 0
-374 388 0
-25 -374 389 0
-375 389 0
-25 -375 390 0
-376 390 0
-25 -376 391 0
-377 391 0
-25 -377 392 0
-378 392 0
-25 -378 393 0
-379 393 0
-25 -379 394 0
-380 394 0
-25 -380 395 0
-381 395 0
-25 -381 396 0
-382 396 0
-25 -382 397 0
-383 397 0
-25 -383 398 0
-384 398 0
-25 -384 399 0
-385 399 0
-25 -385 400 0
-386 400 0
-25 -386 0
-26 401 0
-387 401 0
-26 -387 402 0
-388 402 0
-26 -388 403 0
-389 403 0
-26 -389 404 0
-390 404 0
-26 -390 405 0
-391 405 0
-26 -391 406 0
-392 406 0
-26 -392 407 0
-393 407 0
-26 -393 408 0
-394 408 0
-26 -394 409 0
-395 409 0
-26 -395 410 0
-396 410 0
-26 -396 411 0
-397 411 0
-26 -397 412 0
-398 412 0
-26 -398 413 0
-399 413 0
-26 -399 414 0
-400 414 0
-26 -400 0
-27 415 0
-401 415 0
-27 -401 416 0
-402 416 0
-27 -402 417 0
-403 417 0
-27 -403 418 0
-404 418 0
-27 -404 419 0
-405 419 0
-27 -405 420 0
-406 420 0
-27 -406 421 0
-407 421 0
-27 -407 422 0
-408 422 0
-27 -408 423 0
-409 423 0
-27 -409 424 0
-410 424 0
-27 -410 425 0
-411 425 0
-27 -411 426 0
-412 426 0
-27 -412 427 0
-413 427 0
-27 -413 428 0
-414 428 0
-27 -414 0
-28 429 0
-415 429 0
-28 -415 430 0
-416 430 0
-28 -416 431 0
-417 431 0
-28 -417 432 0
-418 432 0
-28 -418 433 0
-419 433 0
-28 -419 434 0
-420 434 0
-28 -420 435 0
-421 435 0
-28 -421 436 0
-422 436 0
-28 -422 437 0
-423 437 0
-28 -423 438 0
-424 438 0
-28 -424 439 0
-425 439 0
-28 -425 440 0
-426 440 0
-28 -426 441 0
-427 441 0
-28 -427 442 0
-428 442 0
-28 -428 0
-29 443 0
-429 443 0
-29 -429 444 0
-430 444 0
-29 -430 445 0
-431 445 0
-29 -431 446 0
-432 446 0
-29 -432 447 0
-433 447 0
-29 -433 448 0
-434 448 0
-29 -434 449 0
-435 449 0
-29 -435 450 0
-436 450 0
-29 -436 451 0
-437 451 0
-29 -437 452 0
-438 452 0
-29 -438 453 0
-439 453 0
-29 -439 454 0
-440 454 0
-29 -440 455 0
-441 455 0
-29 -441 456 0
-442 456 0
-29 -442 0
-30 457 0
-443 457 0
-30 -443 458 0
-444 458 0
-30 -444 459 0
-445 459 0
-30 -445 460 0
-446 460 0
-30 -446 461 0
-447 461 0
-30 -447 462 0
-448 462 0
-30 -448 463 0
-449 463 0
-30 -449 464 0
-450 464 0
-30 -450 465 0
-451 465 0
-30 -451 466 0
-452 466 0
-30 -452 467 0
-453 467 0
-30 -453 468 0
-454 468 0
-30 -454 469 0
-455 469 0
-30 -455 470 0
-456 470 0
-30 -456 0
-31 471 0
-457 471 0
-31 -457 472 0
-458 472 0
-31 -458 473 0
-459 473 0
-31 -459 474 0
-460 474 0
-31 -460 475 0
-461 475 0
-31 -461 476 0
-462 476 0
-31 -462 477 0
-463 477 0
-31 -463 478 0
-464 478 0
-31 -464 479 0
-465 479 0
-31 -465 480 0
-466 480 0
-31 -466 481 0
-467 481 0
-31 -467 482 0
-468 482 0
-31 -468 483 0
-469 483 0
-31 -469 484 0
-470 484 0
-31 -470 0
-32 485 0
-471 485 0
-32 -471 486 0
-472 486 0
-32 -472 487 0
-473 487 0
-32 -473 488 0
-474 488 0
-32 -474 489 0
-475 489 0
-32 -475 490 0
-476 490 0
-32 -476 491 0
-477 491 0
-32 -477 492 0
-478 492 0
-32 -478 493 0
-479 493 0
-32 -479 494 0
-480 494 0
-32 -480 495 0
-481 495 0
-32 -481 496 0
-482 496 0
-32 -482 497 0
-483 497 0
-32 -483 498 0
-484 498 0
-32 -484 0
-33 499 0
-485 499 0
-33 -485 500 0
-486 500 0
-33 -486 501 0
-487 501 0
-33 -487 502 0
-488 502 0
-33 -488 503 0
-489 503 0
-33 -489 504 0
-490 504 0
-33 -490 505 0
-491 505 0
-33 -491 506 0
-492 506 0
-33 -492 507 0
-493 507 0
-33 -493 508 0
-494 508 0
-33 -494 509 0
-495 509 0
-33 -495 510 0
-496 510 0
-33 -496 511 0
-497 511 0
-33 -497 512 0
-498 512 0
-33 -498 0
-34 513 0
-499 513 0
-34 -499 514 0
-500 514 0
-34 -500 515 0
-501 515 0
-34 -501 516 0
-502 516 0
-34 -502 517 0
-503 517 0
-34 -503 518 0
-504 518 0
-34 -504 519 0
-505 519 0
-34 -505 520 0
-506 520 0
-34 -506 521 0
-507 521 0
-34 -507 522 0
-508 522 0
-34 -508 523 0
-509 523 0
-34 -509 524 0
-510 524 0
-34 -510 525 0
-511 525 0
-34 -511 526 0
-512 526 0
-34 -512 0
-35 527 0
-513 527 0
-35 -513 528 0
-514 528 0
-35 -514 529 0
-515 529 0
-35 -515 530 0
-516 530 0
-35 -516 531 0
-517 531 0
-35 -517 532 0
-518 532 0
-35 -518 533 0
-519 533 0
-35 -519 534 0
-520 534 0
-35 -520 535 0
-521 535 0
-35 -521 536 0
-522 536 0
-35 -522 537 0
-523 537 0
-35 -523 538 0
-524 538 0
-35 -524 539 0
-525 539 0
-35 -525 540 0
-526 540 0
-35 -526 0
-36 541 0
-527 541 0
-36 -527 542 0
-528 542 0
-36 -528 543 0
-529 543 0
-36 -529 544 0
-530 544 0
-36 -530 545 0
-531 545 0
-36 -531 546 0
-532 546 0
-36 -532 547 0
-533 547 0
-36 -533 548 0
-534 548 0
-36 -534 549 0
-535 549 0
-36 -535 550 0
-536 550 0
-36 -536 551 0
-537 551 0
-36 -537 552 0
-538 552 0
-36 -538 553 0
-539 553 0
-36 -539 554 0
-540 554 0
-36 -540 0
-37 555 0
-541 555 0
-37 -541 556 0
-542 556 0
-37 -542 557 0
-543 557 0
-37 -543 558 0
-544 558 0
-37 -544 559 0
-545 559 0
-37 -545 560 0
-546 560 0
-37 -546 561 0
-547 561 0
-37 -547 562 0
-548 562 0
-37 -548 563 0
-549 563 0
-37 -549 564 0
-550 564 0
-37 -550 565 0
-551 565 0
-37 -551 566 0
-552 566 0
-37 -552 567 0
-553 567 0
-37 -553 568 0
-554 568 0
-37 -554 0
-38 569 0
-555 569 0
-38 -555 570 0
-556 570 0
-38 -556 571 0
-557 571 0
-38 -557 572 0
-558 572 0
-38 -558 573 0
-559 573 0
-38 -559 574 0
-560 574 0
-38 -560 575 0
-561 575 0
-38 -561 576 0
-562 576 0
-38 -562 577 0
-563 577 0
-38 -563 578 0
-564 578 0
-38 -564 579 0
-565 579 0
-38 -565 580 0
-566 580 0
-38 -566 581 0
-567 581 0
-38 -567 582 0
-568 582 0
-38 -568 0
-39 583 0
-569 583 0
-39 -569 584 0
-570 584 0
-39 -570 585 0
-571 585 0
-39 -571 586 0
-572 586 0
-39 -572 587 0
-573 587 0
-39 -573 588 0
-574 588 0
-39 -574 589 0
-575 589 0
-39 -575 590 0
-576 590 0
-39 -576 591 0
-577 591 0
-39 -577 592 0
-578 592 0
-39 -578 593 0
-579 593 0
-39 -579 594 0
-580 594 0
-39 -580 595 0
-581 595 0
-39 -581 596 0
-582 596 0
-39 -582 0
-40 597 0
-583 597 0
-40 -583 598 0
-584 598 0
-40 -584 599 0
-585 599 0
-40 -585 600 0
-586 600 0
-40 -586 601 0
-587 601 0
-40 -587 602 0
-588 602 0
-40 -588 603 0
-589 603 0
-40 -589 604 0
-590 604 0
-40 -590 605 0
-591 605 0
-40 -591 606 0
-592 606 0
-40 -592 607 0
-593 607 0
-40 -593 608 0
-594 608 0
-40 -594 609 0
-595 609 0
-40 -595 610 0
-596 610 0
-40 -596 0
-41 611 0
-597 611 0
-41 -597 612 0
-598 612 0
-41 -598 613 0
-599 613 0
-41 -599 614 0
-600 614 0
-41 -600 615 0
-601 615 0
-41 -601 616 0
-602 616 0
-41 -602 617 0
-603 617 0
-41 -603 618 0
-604 618 0
-41 -604 619 0
-605 619 0
-41 -605 620 0
-606 620 0
-41 -606 621 0
-607 621 0
-41 -607 622 0
-608 622 0
-41 -608 623 0
-609 623 0
-41 -609 624 0
-610 624 0
-41 -610 0
-42 625 0
-611 625 0
-42 -611 626 0
-612 626 0
-42 -612 627 0
-613 627 0
-42 -613 628 0
-614 628 0
-42 -614 629 0
-615 629 0
-42 -615 630 0
-616 630 0
-42 -616 631 0
-617 631 0
-42 -617 632 0
-618 632 0
-42 -618 633 0
-619 633 0
-42 -619 634 0
-620 634 0
-42 -620 635 0
-621 635 0
-42 -621 636 0
-622 636 0
-42 -622 637 0
-623 637 0
-42 -623 638 0
-624 638 0
-42 -624 0
-43 639 0
-625 639 0
-43 -625 640 0
-626 640 0
-43 -626 641 0
-627 641 0
-43 -627 642 0
-628 642 0
-43 -628 643 0
-629 643 0
-43 -629 644 0
-630 644 0
-43 -630 645 0
-631 645 0
-43 -631 646 0
-632 646 0
-43 -632 647 0
-633 647 0
-43 -633 648 0
-634 648 0
-43 -634 649 0
-635 649 0
-43 -635 650 0
-636 650 0
-43 -636 651 0
-637 651 0
-43 -637 652 0
-638 652 0
-43 -638 0
-44 653 0
-639 653 0
-44 -639 654 0
-640 654 0
-44 -640 655 0
-641 655 0
-44 -641 656 0
-642 656 0
-44 -642 657 0
-643 657 0
-44 -643 658 0
-644 658 0
-44 -644 659 0
-645 659 0
-44 -645 660 0
-646 660 0
-44 -646 661 0
-647 661 0
-44 -647 662 0
-648 662 0
-44 -648 663 0
-649 663 0
-44 -649 664 0
-650 664 0
-44 -650 665 0
-651 665 0
-44 -651 666 0
-652 666 0
-44 -652 0
-45 667 0
-653 667 0
-45 -653 668 0
-654 668 0
-45 -654 669 0
-655 669 0
-45 -655 670 0
-656 670 0
-45 -656 671 0
-657 671 0
-45 -657 672 0
-658 672 0
-45 -658 673 0
-659 673 0
-45 -659 674 0
-660 674 0
-45 -660 675 0
-661 675 0
-45 -661 676 0
-662 676 0
-45 -662 677 0
-663 677 0
-45 -663 678 0
-664 678 0
-45 -664 679 0
-665 679 0
-45 -665 680 0
-666 680 0
-45 -666 0
-46 681 0
-667 681 0
-46 -667 682 0
-668 682 0
-46 -668 683 0
-669 683 0
-46 -669 684 0
-670 684 0
-46 -670 685 0
-671 685 0
-46 -671 686 0
-672 686 0
-46 -672 687 0
-673 687 0
-46 -673 688 0
-674 688 0
-46 -674 689 0
-675 689 0
-46 -675 690 0
-676 690 0
-46 -676 691 0
-677 691 0
-46 -677 692 0
-678 692 0
-46 -678 693 0
-679 693 0
-46 -679 694 0
-680 694 0
-46 -680 0
-47 695 0
-681 695 0
-47 -681 696 0
-682 696 0
-47 -682 697 0
-683 697 0
-47 -683 698 0
-684 698 0
-47 -684 699 0
-685 699 0
-47 -685 700 0
-686 700 0
-47 -686 701 0
-687 701 0
-47 -687 702 0
-688 702 0
-47 -688 703 0
-689 703 0
-47 -689 704 0
-690 704 0
-47 -690 705 0
-691 705 0
-47 -691 706 0
-692 706 0
-47 -692 707 0
-693 707 0
-47 -693 708 0
-694 708 0
-47 -694 0
-48 709 0
-695 709 0
-48 -695 710 0
-696 710 0
-48 -696 711 0
-697 711 0
-48 -697 712 0
-698 712 0
-48 -698 713 0
-699 713 0
-48 -699 714 0
-700 714 0
-48 -700 715 0
-701 715 0
-48 -701 716 0
-702 716 0
-48 -702 717 0
-703 717 0
-48 -703 718 0
-704 718 0
-48 -704 719 0
-705 719 0
-48 -705 720 0
-706 720 0
-48 -706 721 0
-707 721 0
-48 -707 722 0
-708 722 0
-48 -708 0
-49 723 0
-709 723 0
-49 -709 724 0
-710 724 0
-49 -710 725 0
-711 725 0
-49 -711 726 0
-712 726 0
-49 -712 727 0
-713 727 0
-49 -713 728 0
-714 728 0
-49 -714 729 0
-715 729 0
-49 -715 730 0
-716 730 0
-49 -716 731 0
-717 731 0
-49 -717 732 0
-718 732 0
-49 -718 733 0
-719 733 0
-49 -719 734 0
-720 734 0
-49 -720 735 0
-721 735 0
-49 -721 736 0
-722 736 0
-49 -722 0
-50 -736 0
